 S11, S22, S33, S12, S23, S31, wp
 -1.101092E+002, -2.466263E+002,  0.000000E+000, -1.223451E+002, -3.685899E-001,  1.454856E+000,  5.105365E-001
 -1.148076E+002, -2.569722E+002,  0.000000E+000, -1.164834E+002, -5.451789E-001,  8.108014E-001,  5.102699E-001
 -1.200479E+002, -2.673259E+002,  0.000000E+000, -1.094193E+002, -6.433330E-001, -2.281258E-002,  5.107772E-001
 -1.263423E+002, -2.778730E+002,  0.000000E+000, -9.969485E+001, -7.495387E-001, -6.156223E-001,  5.101585E-001
 -1.329646E+002, -2.887202E+002,  0.000000E+000, -8.775886E+001, -7.293043E-001, -1.272816E+000,  5.106054E-001
 -1.389265E+002, -2.990730E+002,  0.000000E+000, -7.389929E+001, -5.902034E-001, -1.822902E+000,  5.101710E-001
 -1.447844E+002, -3.089124E+002,  0.000000E+000, -5.844987E+001, -6.395675E-001, -2.468281E+000,  5.106122E-001
 -1.493545E+002, -3.171419E+002,  0.000000E+000, -4.175317E+001, -5.132551E-001, -3.148438E+000,  5.101829E-001
 -1.514306E+002, -3.223457E+002,  0.000000E+000, -2.486054E+001, -3.571951E-001, -3.672928E+000,  5.100131E-001
 -1.517243E+002, -3.245580E+002,  0.000000E+000, -7.957231E+000, -5.479745E-001, -3.847517E+000,  5.103386E-001
 -1.501937E+002, -3.238205E+002,  0.000000E+000,  8.924011E+000, -8.586226E-001, -2.733284E+000,  5.107227E-001
 -1.469011E+002, -3.205772E+002,  0.000000E+000,  2.528452E+001, -1.428473E+000, -1.191343E+000,  5.100393E-001
 -1.422582E+002, -3.153281E+002,  0.000000E+000,  4.125006E+001, -2.066494E+000,  1.975872E-001,  5.105296E-001
 -1.367078E+002, -3.083893E+002,  0.000000E+000,  5.664537E+001, -2.340140E+000,  1.354471E+000,  5.106291E-001
 -1.297831E+002, -2.989130E+002,  0.000000E+000,  7.159536E+001, -2.213772E+000,  2.079616E+000,  5.106692E-001
 -1.221336E+002, -2.880207E+002,  0.000000E+000,  8.529588E+001, -2.219896E+000,  2.395408E+000,  5.105024E-001
 -1.146159E+002, -2.758973E+002,  0.000000E+000,  9.735699E+001, -2.065673E+000,  2.741241E+000,  5.105636E-001
 -1.075492E+002, -2.636236E+002,  0.000000E+000,  1.073529E+002, -1.967896E+000,  2.863352E+000,  5.100022E-001
 -1.013236E+002, -2.519324E+002,  0.000000E+000,  1.155227E+002, -1.724047E+000,  2.998535E+000,  5.107932E-001
 -9.561845E+001, -2.409774E+002,  0.000000E+000,  1.224138E+002, -1.517358E+000,  3.139083E+000,  5.100715E-001
 -8.419583E+001, -2.450093E+002,  0.000000E+000, -1.232594E+002, -4.809968E-001,  1.862817E+000,  5.101754E-001
 -8.676063E+001, -2.550376E+002,  0.000000E+000, -1.174821E+002, -6.787383E-001,  1.279026E+000,  5.103939E-001
 -8.940172E+001, -2.648256E+002,  0.000000E+000, -1.107000E+002, -7.704666E-001,  4.335048E-001,  5.101343E-001
 -9.234460E+001, -2.751147E+002,  0.000000E+000, -1.015150E+002, -7.734080E-001, -4.770827E-001,  5.100164E-001
 -9.600289E+001, -2.858822E+002,  0.000000E+000, -8.949522E+001, -7.053867E-001, -1.080785E+000,  5.100343E-001
 -9.994234E+001, -2.964519E+002,  0.000000E+000, -7.561642E+001, -4.295279E-001, -1.708293E+000,  5.105365E-001
 -1.031793E+002, -3.063687E+002,  0.000000E+000, -5.964457E+001, -6.164673E-001, -2.308066E+000,  5.101349E-001
 -1.058530E+002, -3.146557E+002,  0.000000E+000, -4.248356E+001, -6.797027E-001, -3.001887E+000,  5.103697E-001
 -1.073603E+002, -3.203096E+002,  0.000000E+000, -2.490375E+001, -3.914071E-001, -3.518304E+000,  5.100031E-001
 -1.073375E+002, -3.226197E+002,  0.000000E+000, -7.609636E+000, -3.916417E-001, -3.682301E+000,  5.105290E-001
 -1.061578E+002, -3.220368E+002,  0.000000E+000,  9.916872E+000, -6.937495E-001, -2.578856E+000,  5.101482E-001
 -1.035106E+002, -3.189112E+002,  0.000000E+000,  2.678110E+001, -1.213224E+000, -9.323786E-001,  5.100572E-001
 -9.980125E+001, -3.134582E+002,  0.000000E+000,  4.325251E+001, -1.814587E+000,  5.403355E-001,  5.100231E-001
 -9.551417E+001, -3.065491E+002,  0.000000E+000,  5.898549E+001, -2.145091E+000,  1.770821E+000,  5.101099E-001
 -9.084208E+001, -2.975403E+002,  0.000000E+000,  7.433942E+001, -2.107240E+000,  2.563813E+000,  5.104398E-001
 -8.602590E+001, -2.866124E+002,  0.000000E+000,  8.823551E+001, -2.122736E+000,  2.871520E+000,  5.107573E-001
 -8.102084E+001, -2.744096E+002,  0.000000E+000,  9.993635E+001, -2.055657E+000,  3.216424E+000,  5.100674E-001
 -7.681026E+001, -2.623395E+002,  0.000000E+000,  1.094829E+002, -1.970017E+000,  3.400410E+000,  5.102217E-001
 -7.295775E+001, -2.507005E+002,  0.000000E+000,  1.177348E+002, -1.740472E+000,  3.479887E+000,  5.101845E-001
 -6.929372E+001, -2.397992E+002,  0.000000E+000,  1.247669E+002, -1.539295E+000,  3.565026E+000,  5.102541E-001
 -8.585811E+001, -2.345586E+002,  0.000000E+000, -1.285325E+002, -2.114869E-001,  2.309322E+000,  5.104140E-001
 -6.974738E+001, -2.285908E+002,  0.000000E+000,  1.307500E+002, -1.181803E+000,  3.553961E+000,  5.102014E-001
 -8.688074E+001, -2.218319E+002,  0.000000E+000, -1.338047E+002, -1.403335E-001,  2.711064E+000,  5.103157E-001
 -6.982192E+001, -2.147654E+002,  0.000000E+000,  1.368600E+002, -5.549918E-001,  3.540419E+000,  5.102382E-001
 -8.762655E+001, -2.066166E+002,  0.000000E+000, -1.391983E+002, -2.818632E-001,  3.157222E+000,  5.106175E-001
 -6.992495E+001, -1.991616E+002,  0.000000E+000,  1.426104E+002,  2.655457E-001,  3.219646E+000,  5.104026E-001
 -5.618198E+001, -2.429964E+002,  0.000000E+000, -1.232961E+002, -5.979295E-001,  2.308252E+000,  5.103583E-001
 -5.611056E+001, -2.525626E+002,  0.000000E+000, -1.175609E+002, -8.703317E-001,  1.777447E+000,  5.102557E-001
 -5.613310E+001, -2.621259E+002,  0.000000E+000, -1.106937E+002, -9.749981E-001,  9.742388E-001,  5.107625E-001
 -5.640608E+001, -2.720958E+002,  0.000000E+000, -1.019584E+002, -9.836170E-001, -1.476321E-002,  5.106073E-001
 -5.714715E+001, -2.826641E+002,  0.000000E+000, -9.032912E+001, -7.749630E-001, -9.335846E-001,  5.102911E-001
 -5.805818E+001, -2.931333E+002,  0.000000E+000, -7.633324E+001, -4.800760E-001, -1.504883E+000,  5.105192E-001
 -5.955285E+001, -3.031537E+002,  0.000000E+000, -6.031376E+001, -6.114401E-001, -2.174266E+000,  5.103342E-001
 -6.075733E+001, -3.115485E+002,  0.000000E+000, -4.301189E+001, -8.548863E-001, -2.841900E+000,  5.100939E-001
 -6.173037E+001, -3.176671E+002,  0.000000E+000, -2.497422E+001, -5.272107E-001, -3.360157E+000,  5.103293E-001
 -6.137035E+001, -3.201419E+002,  0.000000E+000, -7.261882E+000, -2.133753E-001, -3.372208E+000,  5.104829E-001
 -6.030853E+001, -3.197377E+002,  0.000000E+000,  1.071467E+001, -4.542764E-001, -2.340742E+000,  5.102170E-001
 -5.839428E+001, -3.168189E+002,  0.000000E+000,  2.826857E+001, -1.019578E+000, -6.411778E-001,  5.106045E-001
 -5.556259E+001, -3.112740E+002,  0.000000E+000,  4.505396E+001, -1.595529E+000,  9.506350E-001,  5.105150E-001
 -5.252819E+001, -3.042795E+002,  0.000000E+000,  6.106957E+001, -1.796026E+000,  2.154594E+000,  5.103086E-001
 -4.973543E+001, -2.954075E+002,  0.000000E+000,  7.620134E+001, -1.884591E+000,  3.155984E+000,  5.103249E-001
 -4.748451E+001, -2.845560E+002,  0.000000E+000,  8.986212E+001, -1.925179E+000,  3.572736E+000,  5.101382E-001
 -4.580845E+001, -2.727577E+002,  0.000000E+000,  1.014407E+002, -2.015110E+000,  3.867039E+000,  5.103759E-001
 -4.411440E+001, -2.607880E+002,  0.000000E+000,  1.110305E+002, -1.894172E+000,  4.055559E+000,  5.102793E-001
 -4.213927E+001, -2.491177E+002,  0.000000E+000,  1.192980E+002, -1.701567E+000,  4.054174E+000,  5.102747E-001
 -4.049400E+001, -2.383061E+002,  0.000000E+000,  1.262018E+002, -1.518189E+000,  4.017620E+000,  5.100102E-001
 -5.743853E+001, -2.324421E+002,  0.000000E+000, -1.286206E+002, -2.629759E-001,  2.683618E+000,  5.102744E-001
 -4.068709E+001, -2.272173E+002,  0.000000E+000,  1.323049E+002, -1.283831E+000,  3.968098E+000,  5.107539E-001
 -5.824364E+001, -2.195712E+002,  0.000000E+000, -1.340017E+002, -9.010039E-002,  3.035098E+000,  5.105644E-001
 -4.089246E+001, -2.135627E+002,  0.000000E+000,  1.385641E+002, -7.540948E-001,  3.882878E+000,  5.103604E-001
 -5.887928E+001, -2.048718E+002,  0.000000E+000, -1.393891E+002, -3.021618E-001,  3.348925E+000,  5.101188E-001
 -4.064278E+001, -1.979097E+002,  0.000000E+000,  1.444815E+002,  1.945355E-001,  3.489548E+000,  5.104051E-001
 -5.896358E+001, -1.861051E+002,  0.000000E+000, -1.448876E+002, -5.051671E-001,  3.467273E+000,  5.103863E-001
 -4.009251E+001, -1.802515E+002,  0.000000E+000,  1.499557E+002,  1.430746E+000,  2.899871E+000,  5.106010E-001
 -5.825236E+001, -1.640649E+002,  0.000000E+000, -1.502600E+002, -5.740906E-001,  3.582466E+000,  5.107747E-001
 -3.923545E+001, -1.596360E+002,  0.000000E+000,  1.548644E+002,  2.821973E+000,  2.237554E+000,  5.101914E-001
 -5.482696E+001, -1.357558E+002,  0.000000E+000, -1.554258E+002, -9.198895E-001,  3.780072E+000,  5.101776E-001
 -3.730501E+001, -1.354420E+002,  0.000000E+000,  1.592669E+002,  3.804166E+000,  1.616003E+000,  5.107192E-001
 -4.866414E+001, -1.021099E+002,  0.000000E+000, -1.601919E+002, -1.647406E+000,  3.494816E+000,  5.105329E-001
 -3.346162E+001, -1.070472E+002,  0.000000E+000,  1.628013E+002,  3.979389E+000,  1.342541E+000,  5.102729E-001
 -2.718852E+001, -2.405892E+002,  0.000000E+000, -1.220436E+002, -7.067182E-001,  2.678300E+000,  5.107954E-001
 -2.497710E+001, -2.497776E+002,  0.000000E+000, -1.165554E+002, -1.022801E+000,  2.150349E+000,  5.108116E-001
 -2.246742E+001, -2.592391E+002,  0.000000E+000, -1.098354E+002, -1.190224E+000,  1.409778E+000,  5.105398E-001
 -1.937719E+001, -2.688443E+002,  0.000000E+000, -1.013337E+002, -1.177530E+000,  5.435028E-001,  5.102605E-001
 -1.708484E+001, -2.791351E+002,  0.000000E+000, -8.998822E+001, -9.205507E-001, -5.289522E-001,  5.107208E-001
 -1.562245E+001, -2.893366E+002,  0.000000E+000, -7.637115E+001, -6.034426E-001, -1.367912E+000,  5.101463E-001
 -1.490368E+001, -2.991713E+002,  0.000000E+000, -6.065191E+001, -7.683299E-001, -2.016401E+000,  5.104213E-001
 -1.485959E+001, -3.079272E+002,  0.000000E+000, -4.329306E+001, -1.018277E+000, -2.617653E+000,  5.103270E-001
 -1.483200E+001, -3.144551E+002,  0.000000E+000, -2.514781E+001, -7.259191E-001, -3.184027E+000,  5.105777E-001
 -1.432200E+001, -3.171578E+002,  0.000000E+000, -6.794354E+000, -2.180098E-001, -2.936303E+000,  5.101735E-001
 -1.334381E+001, -3.168993E+002,  0.000000E+000,  1.149564E+001, -3.247098E-001, -1.994347E+000,  5.101795E-001
 -1.200510E+001, -3.142122E+002,  0.000000E+000,  2.966922E+001, -8.216602E-001, -3.080008E-001,  5.102335E-001
 -1.007571E+001, -3.086563E+002,  0.000000E+000,  4.680119E+001, -1.292300E+000,  1.446268E+000,  5.103372E-001
 -8.505726E+000, -3.013968E+002,  0.000000E+000,  6.263001E+001, -1.354476E+000,  2.793712E+000,  5.105211E-001
 -7.863552E+000, -2.926225E+002,  0.000000E+000,  7.734187E+001, -1.492649E+000,  3.747655E+000,  5.107862E-001
 -8.140076E+000, -2.822245E+002,  0.000000E+000,  9.064315E+001, -1.694716E+000,  4.345285E+000,  5.104090E-001
 -9.057519E+000, -2.707550E+002,  0.000000E+000,  1.019906E+002, -1.831046E+000,  4.527414E+000,  5.106469E-001
 -1.027396E+001, -2.589339E+002,  0.000000E+000,  1.115153E+002, -1.837956E+000,  4.629705E+000,  5.107840E-001
 -1.150041E+001, -2.473668E+002,  0.000000E+000,  1.197567E+002, -1.750558E+000,  4.549112E+000,  5.101689E-001
 -1.247576E+001, -2.365823E+002,  0.000000E+000,  1.264074E+002, -1.635217E+000,  4.471286E+000,  5.104718E-001
 -2.793351E+001, -2.298558E+002,  0.000000E+000, -1.272282E+002, -3.874968E-001,  2.995069E+000,  5.102870E-001
 -1.171129E+001, -2.252758E+002,  0.000000E+000,  1.324433E+002, -1.434947E+000,  4.345676E+000,  5.102511E-001
 -2.861675E+001, -2.169059E+002,  0.000000E+000, -1.325188E+002, -2.550776E-001,  3.199333E+000,  5.108292E-001
 -1.091622E+001, -2.118236E+002,  0.000000E+000,  1.385420E+002, -9.884696E-001,  4.164220E+000,  5.101350E-001
 -2.912807E+001, -2.018705E+002,  0.000000E+000, -1.378416E+002, -3.277067E-001,  3.260545E+000,  5.102118E-001
 -1.040164E+001, -1.961326E+002,  0.000000E+000,  1.444645E+002,  1.389652E-002,  3.587267E+000,  5.106765E-001
 -2.829124E+001, -1.828742E+002,  0.000000E+000, -1.434378E+002, -4.080224E-001,  3.239189E+000,  5.108633E-001
 -9.782606E+000, -1.779970E+002,  0.000000E+000,  1.500116E+002,  1.252906E+000,  2.683418E+000,  5.101407E-001
 -2.592016E+001, -1.597221E+002,  0.000000E+000, -1.488638E+002, -5.394896E-001,  3.280517E+000,  5.105902E-001
 -7.944980E+000, -1.567590E+002,  0.000000E+000,  1.551818E+002,  2.573458E+000,  1.983594E+000,  5.108625E-001
 -2.101208E+001, -1.295058E+002,  0.000000E+000, -1.541570E+002, -8.186272E-001,  3.232711E+000,  5.101124E-001
 -4.604566E+000, -1.313086E+002,  0.000000E+000,  1.598565E+002,  3.661452E+000,  1.415890E+000,  5.101796E-001
 -1.399986E+001, -9.437989E+001,  0.000000E+000, -1.589792E+002, -1.551479E+000,  2.857547E+000,  5.100293E-001
  7.061112E-001, -1.014700E+002,  0.000000E+000,  1.636570E+002,  3.985457E+000,  6.699365E-001,  5.101990E-001
 -4.779860E+000, -5.442584E+001,  0.000000E+000, -1.628491E+002, -2.481539E+000,  1.957730E+000,  5.103495E-001
  8.582221E+000, -6.563959E+001,  0.000000E+000,  1.663840E+002,  3.897604E+000, -2.130488E-001,  5.101624E-001
  5.906386E+000, -1.110678E+001,  0.000000E+000, -1.655723E+002, -3.018932E+000,  8.341795E-001,  5.107378E-001
  1.911851E+001, -2.364665E+001,  0.000000E+000,  1.677047E+002,  3.443038E+000, -8.531805E-001,  5.104325E-001
  1.721625E+001,  3.279416E+001,  0.000000E+000, -1.664488E+002, -3.466336E+000, -5.281772E-002,  5.104849E-001
  2.997378E+001,  2.047937E+001,  0.000000E+000,  1.668777E+002,  3.138231E+000, -1.666007E+000,  5.104491E-001
  2.692987E+001,  7.347145E+001,  0.000000E+000, -1.653925E+002, -3.689988E+000, -6.626287E-001,  5.104295E-001
  3.994987E+001,  6.314424E+001,  0.000000E+000,  1.641337E+002,  2.407687E+000, -2.628375E+000,  5.106630E-001
  9.569339E-001, -2.377002E+002,  0.000000E+000, -1.200170E+002, -8.197248E-001,  3.002005E+000,  5.106198E-001
  5.598228E+000, -2.465559E+002,  0.000000E+000, -1.143753E+002, -1.083671E+000,  2.531716E+000,  5.104740E-001
  1.077120E+001, -2.558833E+002,  0.000000E+000, -1.075156E+002, -1.306331E+000,  1.887441E+000,  5.107843E-001
  1.637629E+001, -2.651744E+002,  0.000000E+000, -9.917395E+001, -1.328558E+000,  9.427533E-001,  5.101843E-001
  2.160251E+001, -2.751466E+002,  0.000000E+000, -8.850137E+001, -1.200904E+000, -9.676472E-002,  5.100119E-001
  2.593961E+001, -2.851435E+002,  0.000000E+000, -7.561309E+001, -8.834726E-001, -1.073806E+000,  5.104396E-001
  2.928051E+001, -2.947406E+002,  0.000000E+000, -6.049231E+001, -9.358320E-001, -1.883162E+000,  5.101508E-001
  3.132259E+001, -3.037470E+002,  0.000000E+000, -4.336035E+001, -1.048365E+000, -2.465906E+000,  5.105943E-001
  3.260470E+001, -3.106527E+002,  0.000000E+000, -2.517759E+001, -8.835239E-001, -2.930806E+000,  5.106875E-001
  3.354936E+001, -3.137803E+002,  0.000000E+000, -6.355962E+000, -2.745245E-001, -2.564130E+000,  5.106858E-001
  3.452717E+001, -3.136200E+002,  0.000000E+000,  1.224971E+001, -1.946790E-001, -1.596980E+000,  5.101167E-001
  3.536107E+001, -3.108061E+002,  0.000000E+000,  3.071904E+001, -4.770936E-001,  1.520176E-001,  5.105266E-001
  3.558023E+001, -3.054206E+002,  0.000000E+000,  4.815829E+001, -7.773988E-001,  2.119363E+000,  5.103169E-001
  3.492775E+001, -2.979527E+002,  0.000000E+000,  6.362102E+001, -8.551323E-001,  3.492253E+000,  5.105053E-001
  3.312152E+001, -2.893318E+002,  0.000000E+000,  7.766698E+001, -1.111244E+000,  4.346755E+000,  5.105276E-001
  3.010032E+001, -2.791568E+002,  0.000000E+000,  9.026119E+001, -1.425831E+000,  4.981567E+000,  5.105689E-001
  2.603202E+001, -2.679197E+002,  0.000000E+000,  1.009644E+002, -1.462909E+000,  4.959421E+000,  5.106647E-001
  2.210284E+001, -2.562576E+002,  0.000000E+000,  1.104424E+002, -1.592732E+000,  5.009124E+000,  5.101658E-001
  1.860864E+001, -2.449635E+002,  0.000000E+000,  1.185066E+002, -1.577664E+000,  4.972258E+000,  5.106566E-001
  1.536092E+001, -2.342442E+002,  0.000000E+000,  1.252694E+002, -1.499216E+000,  4.827808E+000,  5.108479E-001
  1.319157E+000, -2.268465E+002,  0.000000E+000, -1.248354E+002, -6.040308E-001,  3.160042E+000,  5.106723E-001
  1.660398E+001, -2.227933E+002,  0.000000E+000,  1.313386E+002, -1.367650E+000,  4.609946E+000,  5.105886E-001
  1.737056E+000, -2.135844E+002,  0.000000E+000, -1.297864E+002, -5.372436E-001,  3.136193E+000,  5.102242E-001
  1.776640E+001, -2.096476E+002,  0.000000E+000,  1.372430E+002, -1.020353E+000,  4.240234E+000,  5.106012E-001
  2.515154E+000, -1.978728E+002,  0.000000E+000, -1.350678E+002, -4.925668E-001,  3.001133E+000,  5.103072E-001
  1.908867E+001, -1.937191E+002,  0.000000E+000,  1.429175E+002, -1.245993E-001,  3.487896E+000,  5.108689E-001
  4.628995E+000, -1.777122E+002,  0.000000E+000, -1.405714E+002, -3.801409E-001,  2.915030E+000,  5.103304E-001
  2.130992E+001, -1.744666E+002,  0.000000E+000,  1.485161E+002,  1.089798E+000,  2.564242E+000,  5.102598E-001
  8.356268E+000, -1.528423E+002,  0.000000E+000, -1.459972E+002, -4.130875E-001,  2.823608E+000,  5.107888E-001
  2.422779E+001, -1.524622E+002,  0.000000E+000,  1.535619E+002,  2.241657E+000,  1.979956E+000,  5.107192E-001
  1.434751E+001, -1.217947E+002,  0.000000E+000, -1.511346E+002, -7.790745E-001,  2.441750E+000,  5.101575E-001
  2.808517E+001, -1.260276E+002,  0.000000E+000,  1.582700E+002,  3.125084E+000,  1.136118E+000,  5.101286E-001
  2.194891E+001, -8.590712E+001,  0.000000E+000, -1.558884E+002, -1.360194E+000,  1.987218E+000,  5.101756E-001
  3.380218E+001, -9.473776E+001,  0.000000E+000,  1.623210E+002,  3.809133E+000,  2.154377E-001,  5.107835E-001
  3.150262E+001, -4.524221E+001,  0.000000E+000, -1.598113E+002, -2.148105E+000,  1.049992E+000,  5.102495E-001
  4.278471E+001, -5.716366E+001,  0.000000E+000,  1.651462E+002,  3.866895E+000, -6.490855E-001,  5.100635E-001
  4.236626E+001, -1.911813E+000,  0.000000E+000, -1.625121E+002, -2.858765E+000, -1.074759E-001,  5.104972E-001
  5.327399E+001, -1.523113E+001,  0.000000E+000,  1.665749E+002,  3.542533E+000, -1.282437E+000,  5.101930E-001
  5.265580E+001,  4.095051E+001,  0.000000E+000, -1.636097E+002, -3.354048E+000, -7.649465E-001,  5.104405E-001
  6.332205E+001,  2.853132E+001,  0.000000E+000,  1.657780E+002,  2.872781E+000, -1.948384E+000,  5.104232E-001
  6.105329E+001,  8.001428E+001,  0.000000E+000, -1.626730E+002, -3.538566E+000, -1.320139E+000,  5.106712E-001
  7.276202E+001,  7.031863E+001,  0.000000E+000,  1.632263E+002,  2.226951E+000, -2.890532E+000,  5.105979E-001
  6.640005E+001,  1.115797E+002,  0.000000E+000, -1.602618E+002, -3.564335E+000, -1.704005E+000,  5.106760E-001
  8.034177E+001,  1.083480E+002,  0.000000E+000,  1.593969E+002,  1.467953E+000, -3.645772E+000,  5.105891E-001
  6.943837E+001,  1.383892E+002,  0.000000E+000, -1.570203E+002, -3.462135E+000, -1.803422E+000,  5.105441E-001
  8.495987E+001,  1.398213E+002,  0.000000E+000,  1.548399E+002,  8.670932E-001, -3.950970E+000,  5.101862E-001
  7.032559E+001,  1.613802E+002,  0.000000E+000, -1.530419E+002, -2.695473E+000, -2.333426E+000,  5.103324E-001
  8.716848E+001,  1.663374E+002,  0.000000E+000,  1.498505E+002,  5.935799E-001, -3.685915E+000,  5.101736E-001
  7.014086E+001,  1.813727E+002,  0.000000E+000, -1.481320E+002, -1.478650E+000, -2.814060E+000,  5.100767E-001
  8.788681E+001,  1.879700E+002,  0.000000E+000,  1.446735E+002,  4.604340E-001, -3.448420E+000,  5.105807E-001
  2.953551E+001, -2.340681E+002,  0.000000E+000, -1.170465E+002, -9.226358E-001,  3.210455E+000,  5.105242E-001
  3.615416E+001, -2.426877E+002,  0.000000E+000, -1.112928E+002, -1.134521E+000,  2.889663E+000,  5.100053E-001
  4.337331E+001, -2.516829E+002,  0.000000E+000, -1.044041E+002, -1.362335E+000,  2.336018E+000,  5.106893E-001
  5.096026E+001, -2.607089E+002,  0.000000E+000, -9.631180E+001, -1.619669E+000,  1.326780E+000,  5.107067E-001
  5.794196E+001, -2.701392E+002,  0.000000E+000, -8.618518E+001, -1.620835E+000,  2.998363E-001,  5.104529E-001
  6.403305E+001, -2.799661E+002,  0.000000E+000, -7.381553E+001, -1.320130E+000, -8.799007E-001,  5.104263E-001
  6.898116E+001, -2.896200E+002,  0.000000E+000, -5.924081E+001, -1.071187E+000, -1.797956E+000,  5.102248E-001
  7.254297E+001, -2.982816E+002,  0.000000E+000, -4.269104E+001, -1.097477E+000, -2.548987E+000,  5.103322E-001
  7.502508E+001, -3.052689E+002,  0.000000E+000, -2.459149E+001, -1.025405E+000, -2.775261E+000,  5.100094E-001
  7.711090E+001, -3.091002E+002,  0.000000E+000, -5.847487E+000, -5.155067E-001, -2.379586E+000,  5.106570E-001
  7.833033E+001, -3.091578E+002,  0.000000E+000,  1.287286E+001, -6.703754E-002, -1.107809E+000,  5.104283E-001
  7.827440E+001, -3.062250E+002,  0.000000E+000,  3.118866E+001, -2.002763E-002,  6.830497E-001,  5.106448E-001
  7.691520E+001, -3.009873E+002,  0.000000E+000,  4.851018E+001, -2.283362E-001,  2.622273E+000,  5.105018E-001
  7.463114E+001, -2.936751E+002,  0.000000E+000,  6.359925E+001, -4.328533E-001,  3.931485E+000,  5.106985E-001
  7.054000E+001, -2.849784E+002,  0.000000E+000,  7.675071E+001, -7.463485E-001,  4.755712E+000,  5.102014E-001
  6.537157E+001, -2.748681E+002,  0.000000E+000,  8.869399E+001, -9.148746E-001,  5.155437E+000,  5.102550E-001
  5.941433E+001, -2.642414E+002,  0.000000E+000,  9.894444E+001, -1.009679E+000,  5.178152E+000,  5.108175E-001
  5.338513E+001, -2.529690E+002,  0.000000E+000,  1.082763E+002, -1.235291E+000,  5.179930E+000,  5.106221E-001
  4.746084E+001, -2.419406E+002,  0.000000E+000,  1.163245E+002, -1.422860E+000,  5.200397E+000,  5.107284E-001
  4.215185E+001, -2.315077E+002,  0.000000E+000,  1.231200E+002, -1.418042E+000,  5.004229E+000,  5.104300E-001
  3.097201E+001, -2.227588E+002,  0.000000E+000, -1.216571E+002, -7.439181E-001,  3.205071E+000,  5.104299E-001
  4.387454E+001, -2.200466E+002,  0.000000E+000,  1.288254E+002, -1.229253E+000,  4.678716E+000,  5.106919E-001
  3.277562E+001, -2.091569E+002,  0.000000E+000, -1.264187E+002, -7.011410E-001,  3.066263E+000,  5.106484E-001
  4.543986E+001, -2.063705E+002,  0.000000E+000,  1.344779E+002, -7.417368E-001,  4.134985E+000,  5.103100E-001
  3.536836E+001, -1.922664E+002,  0.000000E+000, -1.315138E+002, -5.834654E-001,  2.828468E+000,  5.103201E-001
  4.754442E+001, -1.897182E+002,  0.000000E+000,  1.399617E+002, -4.387247E-002,  3.364032E+000,  5.106763E-001
  3.891115E+001, -1.714569E+002,  0.000000E+000, -1.367810E+002, -3.887725E-001,  2.722751E+000,  5.100496E-001
  5.014292E+001, -1.699091E+002,  0.000000E+000,  1.452032E+002,  9.367658E-001,  2.588544E+000,  5.104943E-001
  4.415242E+001, -1.448896E+002,  0.000000E+000, -1.420942E+002, -2.183747E-001,  2.358714E+000,  5.108393E-001
  5.371035E+001, -1.470165E+002,  0.000000E+000,  1.502339E+002,  1.979087E+000,  1.689009E+000,  5.107962E-001
  5.107190E+001, -1.132201E+002,  0.000000E+000, -1.471021E+002, -3.986941E-001,  1.753268E+000,  5.106603E-001
  5.946166E+001, -1.197855E+002,  0.000000E+000,  1.550392E+002,  2.853971E+000,  6.637973E-001,  5.107314E-001
  5.975269E+001, -7.650762E+001,  0.000000E+000, -1.516915E+002, -8.972541E-001,  1.233648E+000,  5.104643E-001
  6.672836E+001, -8.754262E+001,  0.000000E+000,  1.591984E+002,  3.636658E+000, -3.113515E-001,  5.103884E-001
  6.979705E+001, -3.583081E+001,  0.000000E+000, -1.555759E+002, -1.607637E+000,  2.807178E-001,  5.107305E-001
  7.534183E+001, -4.903948E+001,  0.000000E+000,  1.620968E+002,  3.855429E+000, -1.088461E+000,  5.104715E-001
  7.960155E+001,  6.886002E+000,  0.000000E+000, -1.582975E+002, -2.477872E+000, -8.535130E-001,  5.103769E-001
  8.442701E+001, -8.049053E+000,  0.000000E+000,  1.634400E+002,  3.398672E+000, -1.845717E+000,  5.105173E-001
  8.858625E+001,  4.809995E+001,  0.000000E+000, -1.591941E+002, -2.789218E+000, -1.481666E+000,  5.104388E-001
  9.329761E+001,  3.451211E+001,  0.000000E+000,  1.624812E+002,  2.636987E+000, -2.529776E+000,  5.104738E-001
  9.492845E+001,  8.499314E+001,  0.000000E+000, -1.582236E+002, -3.059454E+000, -1.640508E+000,  5.100034E-001
  1.013279E+002,  7.533825E+001,  0.000000E+000,  1.598988E+002,  1.982336E+000, -3.304520E+000,  5.100331E-001
  9.815096E+001,  1.147753E+002,  0.000000E+000, -1.560786E+002, -3.255336E+000, -1.802293E+000,  5.102612E-001
  1.068345E+002,  1.111298E+002,  0.000000E+000,  1.563800E+002,  1.083691E+000, -3.688496E+000,  5.102820E-001
  9.985887E+001,  1.401702E+002,  0.000000E+000, -1.532067E+002, -3.261173E+000, -1.788792E+000,  5.103496E-001
  1.100269E+002,  1.410049E+002,  0.000000E+000,  1.521446E+002,  6.111363E-001, -3.836047E+000,  5.108093E-001
  1.004207E+002,  1.623700E+002,  0.000000E+000, -1.495934E+002, -2.747225E+000, -2.141682E+000,  5.107687E-001
  1.121034E+002,  1.670705E+002,  0.000000E+000,  1.475498E+002,  5.337733E-001, -3.631913E+000,  5.100350E-001
  9.999036E+001,  1.819757E+002,  0.000000E+000, -1.449785E+002, -1.587783E+000, -2.572190E+000,  5.104237E-001
  1.133592E+002,  1.891251E+002,  0.000000E+000,  1.426157E+002,  5.568158E-001, -3.277467E+000,  5.103476E-001
  9.902462E+001,  2.000330E+002,  0.000000E+000, -1.397099E+002, -3.934495E-001, -2.956717E+000,  5.101271E-001
  1.141080E+002,  2.077850E+002,  0.000000E+000,  1.375679E+002,  3.899328E-001, -2.831533E+000,  5.103352E-001
  9.811224E+001,  2.158033E+002,  0.000000E+000, -1.341492E+002,  3.810483E-001, -3.233349E+000,  5.106938E-001
  1.136384E+002,  2.234912E+002,  0.000000E+000,  1.324057E+002,  1.930114E-001, -2.405550E+000,  5.100010E-001
  9.693783E+001,  2.295979E+002,  0.000000E+000, -1.281639E+002,  1.062842E+000, -3.205970E+000,  5.104340E-001
  1.121327E+002,  2.362442E+002,  0.000000E+000,  1.273484E+002,  1.029498E-001, -1.996721E+000,  5.107685E-001
  5.747998E+001, -2.299459E+002,  0.000000E+000, -1.137171E+002, -1.110231E+000,  3.281941E+000,  5.107884E-001
  6.562336E+001, -2.385546E+002,  0.000000E+000, -1.078023E+002, -1.294329E+000,  3.067831E+000,  5.102164E-001
  7.443948E+001, -2.471752E+002,  0.000000E+000, -1.010319E+002, -1.451166E+000,  2.646576E+000,  5.103042E-001
  8.295176E+001, -2.556641E+002,  0.000000E+000, -9.319102E+001, -1.712003E+000,  1.822658E+000,  5.103638E-001
  9.046387E+001, -2.645584E+002,  0.000000E+000, -8.341168E+001, -1.716135E+000,  7.172766E-001,  5.108232E-001
  9.673083E+001, -2.737979E+002,  0.000000E+000, -7.153039E+001, -1.464090E+000, -6.323627E-001,  5.100907E-001
  1.020376E+002, -2.828702E+002,  0.000000E+000, -5.750304E+001, -1.134558E+000, -1.782242E+000,  5.101914E-001
  1.055187E+002, -2.910800E+002,  0.000000E+000, -4.147961E+001, -8.581337E-001, -2.485088E+000,  5.107602E-001
  1.086559E+002, -2.977963E+002,  0.000000E+000, -2.347752E+001, -6.869322E-001, -2.651037E+000,  5.104551E-001
  1.108533E+002, -3.017518E+002,  0.000000E+000, -5.204440E+000, -2.196940E-001, -2.176968E+000,  5.103606E-001
  1.113874E+002, -3.022613E+002,  0.000000E+000,  1.331587E+001,  3.082440E-001, -7.368681E-001,  5.108068E-001
  1.122272E+002, -2.996959E+002,  0.000000E+000,  3.124556E+001,  2.798065E-001,  1.141192E+000,  5.102702E-001
  1.113694E+002, -2.945655E+002,  0.000000E+000,  4.802187E+001,  3.693224E-001,  2.955629E+000,  5.107505E-001
  1.080733E+002, -2.877108E+002,  0.000000E+000,  6.250611E+001,  2.206878E-001,  4.168147E+000,  5.104297E-001
  1.029461E+002, -2.794211E+002,  0.000000E+000,  7.506367E+001, -2.052412E-001,  4.821046E+000,  5.102848E-001
  9.660925E+001, -2.699465E+002,  0.000000E+000,  8.637672E+001, -4.685794E-001,  5.002834E+000,  5.105111E-001
  8.955554E+001, -2.598922E+002,  0.000000E+000,  9.643183E+001, -6.987892E-001,  5.158118E+000,  5.107359E-001
  8.253294E+001, -2.491309E+002,  0.000000E+000,  1.055657E+002, -9.541468E-001,  5.166768E+000,  5.104054E-001
  7.524803E+001, -2.386917E+002,  0.000000E+000,  1.134634E+002, -1.127744E+000,  5.163987E+000,  5.106532E-001
  6.801483E+001, -2.285716E+002,  0.000000E+000,  1.203146E+002, -1.216392E+000,  4.918402E+000,  5.104714E-001
  6.013631E+001, -2.181511E+002,  0.000000E+000, -1.180995E+002, -9.651490E-001,  3.174779E+000,  5.107030E-001
  7.005605E+001, -2.170497E+002,  0.000000E+000,  1.254555E+002, -9.822954E-001,  4.402146E+000,  5.102916E-001
  6.309520E+001, -2.040789E+002,  0.000000E+000, -1.226322E+002, -8.758412E-001,  2.933477E+000,  5.108830E-001
  7.219551E+001, -2.028306E+002,  0.000000E+000,  1.307149E+002, -4.378972E-001,  3.925301E+000,  5.105690E-001
  6.706395E+001, -1.861788E+002,  0.000000E+000, -1.274410E+002, -6.872929E-001,  2.793876E+000,  5.101841E-001
  7.438293E+001, -1.856041E+002,  0.000000E+000,  1.358959E+002,  6.499208E-002,  3.128667E+000,  5.108180E-001
  7.216828E+001, -1.642339E+002,  0.000000E+000, -1.324832E+002, -3.039887E-001,  2.464086E+000,  5.108646E-001
  7.733157E+001, -1.652351E+002,  0.000000E+000,  1.410127E+002,  9.245174E-001,  2.113173E+000,  5.104341E-001
  7.899428E+001, -1.365454E+002,  0.000000E+000, -1.375531E+002, -2.374361E-002,  1.832397E+000,  5.104184E-001
  8.186205E+001, -1.412441E+002,  0.000000E+000,  1.460221E+002,  1.783303E+000,  9.981349E-001,  5.108521E-001
  8.697307E+001, -1.044889E+002,  0.000000E+000, -1.424571E+002, -3.588877E-002,  1.253644E+000,  5.107805E-001
  8.849636E+001, -1.126443E+002,  0.000000E+000,  1.508057E+002,  2.628673E+000, -2.181076E-001,  5.104017E-001
  9.627033E+001, -6.721965E+001,  0.000000E+000, -1.468533E+002, -4.225773E-001,  6.514696E-001,  5.104756E-001
  9.631500E+001, -8.020302E+001,  0.000000E+000,  1.549017E+002,  3.153649E+000, -1.203901E+000,  5.103162E-001
  1.061183E+002, -2.715505E+001,  0.000000E+000, -1.505053E+002, -9.863802E-001, -4.010396E-001,  5.108075E-001
  1.047352E+002, -4.249481E+001,  0.000000E+000,  1.576533E+002,  3.131498E+000, -2.012395E+000,  5.105509E-001
  1.152986E+002,  1.387961E+001,  0.000000E+000, -1.530292E+002, -1.549535E+000, -1.465582E+000,  5.104942E-001
  1.129363E+002, -1.935278E+000,  0.000000E+000,  1.588078E+002,  2.960245E+000, -2.475005E+000,  5.103868E-001
  1.219152E+002,  5.329900E+001,  0.000000E+000, -1.535642E+002, -1.859749E+000, -1.658718E+000,  5.104005E-001
  1.208052E+002,  3.951564E+001,  0.000000E+000,  1.576245E+002,  2.732949E+000, -2.962376E+000,  5.101754E-001
  1.263387E+002,  8.824440E+001,  0.000000E+000, -1.527189E+002, -2.331421E+000, -1.762081E+000,  5.103394E-001
  1.267453E+002,  7.801762E+001,  0.000000E+000,  1.551296E+002,  1.990684E+000, -3.383728E+000,  5.100120E-001
  1.282699E+002,  1.165727E+002,  0.000000E+000, -1.507708E+002, -2.663313E+000, -1.684600E+000,  5.101928E-001
  1.303096E+002,  1.116666E+002,  0.000000E+000,  1.519239E+002,  1.126532E+000, -3.576947E+000,  5.102711E-001
  1.286442E+002,  1.409962E+002,  0.000000E+000, -1.483385E+002, -2.956874E+000, -1.618231E+000,  5.101506E-001
  1.328293E+002,  1.409920E+002,  0.000000E+000,  1.482130E+002,  6.277698E-001, -3.595695E+000,  5.104974E-001
  1.281098E+002,  1.627587E+002,  0.000000E+000, -1.453116E+002, -2.698588E+000, -1.849984E+000,  5.107533E-001
  1.341878E+002,  1.667871E+002,  0.000000E+000,  1.441745E+002,  4.759788E-001, -3.402909E+000,  5.103730E-001
  1.270533E+002,  1.822590E+002,  0.000000E+000, -1.412183E+002, -1.772473E+000, -2.292087E+000,  5.105609E-001
  1.352906E+002,  1.894879E+002,  0.000000E+000,  1.396526E+002,  6.052846E-001, -3.072007E+000,  5.106207E-001
  1.257365E+002,  2.002170E+002,  0.000000E+000, -1.363785E+002, -5.797938E-001, -2.686362E+000,  5.102376E-001
  1.360971E+002,  2.085607E+002,  0.000000E+000,  1.348705E+002,  3.595630E-001, -2.673318E+000,  5.101486E-001
  1.242277E+002,  2.161208E+002,  0.000000E+000, -1.310352E+002,  2.097958E-001, -2.950607E+000,  5.100022E-001
  1.362849E+002,  2.244705E+002,  0.000000E+000,  1.301094E+002,  1.330135E-001, -2.247103E+000,  5.105150E-001
  1.222786E+002,  2.299429E+002,  0.000000E+000, -1.253114E+002,  8.830154E-001, -2.911454E+000,  5.100130E-001
  1.356113E+002,  2.373678E+002,  0.000000E+000,  1.254615E+002,  1.434129E-001, -1.766948E+000,  5.102167E-001
  1.203180E+002,  2.417822E+002,  0.000000E+000, -1.197757E+002,  1.407710E+000, -2.800418E+000,  5.102404E-001
  1.274282E+002,  2.529686E+002,  0.000000E+000, -1.127314E+002,  1.613164E+000, -2.621852E+000,  5.101138E-001
  1.355699E+002,  2.647368E+002,  0.000000E+000, -1.041365E+002,  1.887817E+000, -2.529626E+000,  5.104805E-001
  1.448243E+002,  2.768859E+002,  0.000000E+000, -9.350441E+001,  2.185409E+000, -2.373681E+000,  5.100289E-001
  1.547330E+002,  2.887395E+002,  0.000000E+000, -8.137149E+001,  2.340327E+000, -2.060609E+000,  5.102387E-001
  1.646374E+002,  2.997495E+002,  0.000000E+000, -6.797002E+001,  2.240226E+000, -1.576240E+000,  5.102412E-001
  1.737976E+002,  3.096008E+002,  0.000000E+000, -5.354741E+001,  2.319364E+000, -8.661491E-001,  5.103703E-001
  1.821241E+002,  3.170658E+002,  0.000000E+000, -3.896027E+001,  2.182215E+000,  7.367043E-002,  5.102946E-001
  1.882692E+002,  3.223034E+002,  0.000000E+000, -2.361139E+001,  1.586759E+000,  1.395826E+000,  5.101515E-001
  1.924385E+002,  3.254958E+002,  0.000000E+000, -7.835111E+000,  9.388735E-001,  2.801862E+000,  5.108064E-001
  1.943891E+002,  3.263941E+002,  0.000000E+000,  8.326378E+000,  6.710740E-001,  3.935142E+000,  5.105591E-001
  1.936205E+002,  3.243492E+002,  0.000000E+000,  2.466884E+001,  3.924672E-001,  3.693307E+000,  5.106577E-001
  1.896615E+002,  3.193287E+002,  0.000000E+000,  4.043307E+001,  4.283933E-001,  3.198499E+000,  5.107234E-001
  1.825053E+002,  3.110351E+002,  0.000000E+000,  5.628908E+001,  6.782809E-001,  2.538572E+000,  5.107018E-001
  1.743275E+002,  3.012917E+002,  0.000000E+000,  7.130504E+001,  7.383427E-001,  1.869189E+000,  5.104084E-001
  1.652465E+002,  2.910573E+002,  0.000000E+000,  8.474243E+001,  7.059898E-001,  1.343186E+000,  5.104154E-001
  1.564096E+002,  2.803325E+002,  0.000000E+000,  9.667094E+001,  6.228807E-001,  6.621263E-001,  5.105241E-001
  1.480255E+002,  2.695345E+002,  0.000000E+000,  1.067515E+002,  4.891224E-001,  8.273853E-002,  5.100835E-001
  1.405663E+002,  2.585781E+002,  0.000000E+000,  1.147177E+002,  3.867078E-001, -5.683484E-001,  5.102815E-001
  1.340775E+002,  2.480207E+002,  0.000000E+000,  1.207935E+002,  2.455986E-001, -1.173840E+000,  5.107855E-001
  8.412408E+001, -2.256319E+002,  0.000000E+000, -1.101936E+002, -1.327522E+000,  3.236314E+000,  5.101642E-001
  9.313020E+001, -2.341996E+002,  0.000000E+000, -1.042200E+002, -1.411369E+000,  3.099303E+000,  5.108536E-001
  1.015875E+002, -2.423101E+002,  0.000000E+000, -9.760645E+001, -1.484268E+000,  2.848774E+000,  5.107498E-001
  1.092942E+002, -2.502021E+002,  0.000000E+000, -8.993108E+001, -1.504875E+000,  2.256388E+000,  5.100008E-001
  1.165617E+002, -2.584437E+002,  0.000000E+000, -8.034907E+001, -1.580793E+000,  1.091873E+000,  5.106001E-001
  1.232389E+002, -2.668736E+002,  0.000000E+000, -6.885568E+001, -1.431203E+000, -3.512906E-001,  5.105039E-001
  1.283259E+002, -2.751048E+002,  0.000000E+000, -5.550875E+001, -1.188966E+000, -1.586212E+000,  5.104898E-001
  1.322250E+002, -2.825994E+002,  0.000000E+000, -3.996643E+001, -1.055627E+000, -2.414881E+000,  5.107660E-001
  1.346683E+002, -2.890032E+002,  0.000000E+000, -2.249775E+001, -7.648390E-001, -2.712464E+000,  5.101600E-001
  1.354890E+002, -2.929814E+002,  0.000000E+000, -4.803101E+000, -1.689990E-001, -2.014526E+000,  5.100831E-001
  1.363550E+002, -2.935221E+002,  0.000000E+000,  1.358545E+001,  4.241921E-001, -5.481194E-001,  5.101295E-001
  1.375080E+002, -2.912807E+002,  0.000000E+000,  3.132725E+001,  7.061048E-001,  1.469211E+000,  5.109769E-001
  1.373868E+002, -2.867571E+002,  0.000000E+000,  4.710960E+001,  8.221113E-001,  3.085090E+000,  5.107788E-001
  1.344970E+002, -2.805747E+002,  0.000000E+000,  6.111136E+001,  8.209415E-001,  4.262087E+000,  5.104771E-001
  1.303519E+002, -2.731654E+002,  0.000000E+000,  7.306164E+001,  4.172145E-001,  4.873316E+000,  5.107730E-001
  1.239756E+002, -2.643703E+002,  0.000000E+000,  8.390512E+001, -6.139930E-002,  4.936215E+000,  5.100678E-001
  1.164795E+002, -2.552013E+002,  0.000000E+000,  9.356783E+001, -3.995127E-001,  5.022439E+000,  5.108514E-001
  1.081086E+002, -2.451046E+002,  0.000000E+000,  1.025079E+002, -5.825895E-001,  4.916534E+000,  5.104564E-001
  1.000410E+002, -2.351841E+002,  0.000000E+000,  1.102273E+002, -6.783881E-001,  4.812565E+000,  5.109148E-001
  9.194543E+001, -2.256593E+002,  0.000000E+000,  1.168687E+002, -8.179759E-001,  4.556094E+000,  5.109471E-001
  8.771242E+001, -2.134028E+002,  0.000000E+000, -1.142699E+002, -1.240580E+000,  3.075827E+000,  5.103209E-001
  9.436819E+001, -2.138917E+002,  0.000000E+000,  1.215675E+002, -6.311052E-001,  4.044200E+000,  5.103719E-001
  9.184439E+001, -1.985632E+002,  0.000000E+000, -1.186055E+002, -1.113606E+000,  2.799680E+000,  5.104656E-001
  9.723067E+001, -1.990855E+002,  0.000000E+000,  1.264569E+002, -2.101643E-001,  3.524381E+000,  5.100822E-001
  9.713328E+001, -1.797148E+002,  0.000000E+000, -1.232325E+002, -7.762877E-001,  2.517924E+000,  5.107606E-001
  1.003555E+002, -1.814456E+002,  0.000000E+000,  1.313013E+002,  2.450150E-001,  2.487073E+000,  5.103356E-001
  1.038082E+002, -1.565703E+002,  0.000000E+000, -1.280171E+002, -3.369076E-001,  2.072600E+000,  5.108603E-001
  1.043498E+002, -1.603059E+002,  0.000000E+000,  1.362815E+002,  9.685274E-001,  1.288336E+000,  5.102180E-001
  1.118995E+002, -1.281338E+002,  0.000000E+000, -1.328278E+002, -3.600711E-002,  1.322406E+000,  5.101543E-001
  1.097059E+002, -1.350975E+002,  0.000000E+000,  1.412825E+002,  1.532748E+000,  3.049059E-002,  5.105626E-001
  1.207831E+002, -9.583434E+001,  0.000000E+000, -1.374218E+002,  1.655692E-001,  8.782410E-001,  5.103325E-001
  1.164962E+002, -1.057189E+002,  0.000000E+000,  1.459731E+002,  2.231053E+000, -1.162309E+000,  5.102671E-001
  1.301742E+002, -5.894605E+001,  0.000000E+000, -1.415762E+002,  7.696127E-003,  2.018375E-001,  5.101645E-001
  1.243065E+002, -7.307681E+001,  0.000000E+000,  1.498659E+002,  2.633536E+000, -2.136863E+000,  5.105657E-001
  1.391319E+002, -1.988048E+001,  0.000000E+000, -1.449802E+002, -3.662639E-001, -9.144891E-001,  5.107085E-001
  1.320735E+002, -3.664087E+001,  0.000000E+000,  1.524140E+002,  2.503888E+000, -2.584796E+000,  5.106340E-001
  1.463443E+002,  1.920776E+001,  0.000000E+000, -1.470287E+002, -5.342038E-001, -1.390957E+000,  5.101212E-001
  1.393735E+002,  3.229361E+000,  0.000000E+000,  1.529517E+002,  2.426134E+000, -2.861794E+000,  5.104282E-001
  1.513190E+002,  5.638597E+001,  0.000000E+000, -1.472730E+002, -8.817414E-001, -1.595295E+000,  5.101725E-001
  1.451370E+002,  4.261401E+001,  0.000000E+000,  1.516587E+002,  2.299529E+000, -3.234388E+000,  5.100229E-001
  1.543273E+002,  8.968310E+001,  0.000000E+000, -1.466072E+002, -1.351992E+000, -1.698928E+000,  5.106230E-001
  1.490893E+002,  7.883479E+001,  0.000000E+000,  1.495614E+002,  1.825814E+000, -3.355262E+000,  5.108045E-001
  1.554179E+002,  1.173490E+002,  0.000000E+000, -1.451774E+002, -1.810781E+000, -1.640229E+000,  5.104536E-001
  1.518172E+002,  1.114231E+002,  0.000000E+000,  1.468117E+002,  1.125275E+000, -3.277981E+000,  5.100908E-001
  1.551175E+002,  1.409207E+002,  0.000000E+000, -1.431649E+002, -2.217954E+000, -1.491262E+000,  5.100637E-001
  1.537964E+002,  1.402443E+002,  0.000000E+000,  1.435893E+002,  6.389568E-001, -3.255246E+000,  5.107898E-001
  1.540981E+002,  1.623789E+002,  0.000000E+000, -1.405744E+002, -2.196898E+000, -1.597171E+000,  5.108406E-001
  1.549231E+002,  1.655573E+002,  0.000000E+000,  1.400010E+002,  6.038324E-001, -3.115698E+000,  5.106392E-001
  1.523483E+002,  1.818950E+002,  0.000000E+000, -1.369557E+002, -1.689872E+000, -1.960650E+000,  5.106188E-001
  1.556307E+002,  1.887586E+002,  0.000000E+000,  1.359823E+002,  6.635595E-001, -2.802669E+000,  5.101116E-001
  1.502937E+002,  1.997285E+002,  0.000000E+000, -1.326032E+002, -7.375406E-001, -2.303813E+000,  5.107571E-001
  1.557156E+002,  2.084166E+002,  0.000000E+000,  1.316278E+002,  4.875565E-001, -2.502985E+000,  5.107642E-001
  1.480949E+002,  2.159089E+002,  0.000000E+000, -1.275099E+002,  7.390200E-002, -2.537619E+000,  5.107841E-001
  1.554816E+002,  2.246389E+002,  0.000000E+000,  1.272177E+002,  1.435925E-001, -2.070293E+000,  5.101594E-001
  1.457463E+002,  2.299221E+002,  0.000000E+000, -1.221507E+002,  7.586844E-001, -2.546160E+000,  5.101519E-001
  1.550991E+002,  2.381344E+002,  0.000000E+000,  1.227869E+002,  7.746540E-002, -1.653931E+000,  5.103820E-001
  1.433686E+002,  2.419291E+002,  0.000000E+000, -1.168529E+002,  1.287665E+000, -2.512236E+000,  5.104966E-001
  1.518794E+002,  2.533238E+002,  0.000000E+000, -1.092806E+002,  1.798744E+000, -2.363491E+000,  5.102580E-001
  1.615309E+002,  2.650306E+002,  0.000000E+000, -9.996618E+001,  2.273726E+000, -2.278187E+000,  5.102483E-001
  1.718912E+002,  2.768968E+002,  0.000000E+000, -8.906644E+001,  2.605203E+000, -2.111343E+000,  5.104722E-001
  1.827889E+002,  2.886187E+002,  0.000000E+000, -7.679815E+001,  2.589795E+000, -1.743972E+000,  5.100086E-001
  1.940062E+002,  2.996156E+002,  0.000000E+000, -6.357773E+001,  2.387658E+000, -1.173994E+000,  5.101619E-001
  2.052188E+002,  3.096112E+002,  0.000000E+000, -4.966504E+001,  2.359323E+000, -5.391198E-001,  5.103778E-001
  2.158480E+002,  3.175167E+002,  0.000000E+000, -3.558186E+001,  2.290140E+000,  3.662693E-001,  5.105191E-001
  2.245614E+002,  3.228889E+002,  0.000000E+000, -2.118317E+001,  1.691167E+000,  1.562677E+000,  5.107806E-001
  2.305580E+002,  3.260204E+002,  0.000000E+000, -6.447389E+000,  1.042225E+000,  2.761355E+000,  5.106301E-001
  2.326273E+002,  3.269783E+002,  0.000000E+000,  8.511876E+000,  7.954707E-001,  3.805798E+000,  5.100927E-001
  2.297563E+002,  3.249035E+002,  0.000000E+000,  2.335559E+001,  6.831767E-001,  3.582452E+000,  5.100160E-001
  2.232412E+002,  3.198801E+002,  0.000000E+000,  3.806478E+001,  5.293220E-001,  3.104110E+000,  5.100904E-001
  2.139850E+002,  3.118141E+002,  0.000000E+000,  5.305663E+001,  7.427422E-001,  2.568591E+000,  5.106036E-001
  2.032759E+002,  3.023599E+002,  0.000000E+000,  6.738990E+001,  8.760942E-001,  1.913261E+000,  5.102601E-001
  1.927686E+002,  2.923085E+002,  0.000000E+000,  8.068575E+001,  7.090711E-001,  1.381081E+000,  5.101468E-001
  1.822341E+002,  2.818966E+002,  0.000000E+000,  9.270143E+001,  6.174015E-001,  6.306906E-001,  5.107719E-001
  1.720188E+002,  2.710014E+002,  0.000000E+000,  1.030542E+002,  3.609660E-001, -8.348911E-002,  5.104390E-001
  1.625677E+002,  2.597913E+002,  0.000000E+000,  1.118295E+002,  9.809291E-002, -7.070795E-001,  5.108378E-001
  1.543294E+002,  2.491200E+002,  0.000000E+000,  1.183978E+002,  7.663764E-002, -1.193901E+000,  5.104301E-001
  1.079988E+002, -2.210479E+002,  0.000000E+000, -1.066991E+002, -1.282137E+000,  3.205093E+000,  5.102581E-001
  1.156888E+002, -2.291995E+002,  0.000000E+000, -1.008819E+002, -1.359467E+000,  3.178734E+000,  5.105161E-001
  1.225381E+002, -2.369794E+002,  0.000000E+000, -9.438364E+001, -1.483208E+000,  2.917079E+000,  5.107608E-001
  1.299010E+002, -2.445716E+002,  0.000000E+000, -8.649204E+001, -1.456218E+000,  2.255506E+000,  5.102564E-001
  1.371944E+002, -2.522913E+002,  0.000000E+000, -7.716216E+001, -1.502066E+000,  1.268690E+000,  5.108841E-001
  1.428583E+002, -2.598519E+002,  0.000000E+000, -6.610240E+001, -1.456095E+000, -2.188843E-001,  5.100239E-001
  1.474979E+002, -2.672568E+002,  0.000000E+000, -5.312836E+001, -1.275423E+000, -1.440556E+000,  5.100731E-001
  1.518023E+002, -2.739663E+002,  0.000000E+000, -3.813395E+001, -1.070427E+000, -2.155613E+000,  5.108686E-001
  1.542646E+002, -2.796850E+002,  0.000000E+000, -2.180615E+001, -6.198791E-001, -2.528606E+000,  5.103945E-001
  1.556381E+002, -2.834418E+002,  0.000000E+000, -4.319967E+000, -7.605242E-002, -1.855325E+000,  5.105968E-001
  1.572373E+002, -2.841162E+002,  0.000000E+000,  1.373380E+001,  2.158083E-001, -3.742433E-001,  5.106490E-001
  1.581149E+002, -2.826517E+002,  0.000000E+000,  3.119827E+001,  7.191649E-001,  1.577911E+000,  5.101947E-001
  1.580149E+002, -2.786821E+002,  0.000000E+000,  4.640419E+001,  9.728334E-001,  3.011372E+000,  5.105380E-001
  1.560550E+002, -2.732202E+002,  0.000000E+000,  5.967471E+001,  1.145248E+000,  4.205183E+000,  5.101622E-001
  1.520832E+002, -2.667013E+002,  0.000000E+000,  7.113895E+001,  8.876258E-001,  4.641022E+000,  5.103475E-001
  1.461323E+002, -2.587359E+002,  0.000000E+000,  8.125784E+001,  5.394478E-001,  4.694240E+000,  5.105026E-001
  1.384545E+002, -2.502624E+002,  0.000000E+000,  9.041481E+001, -6.906891E-002,  4.767400E+000,  5.108672E-001
  1.299775E+002, -2.410612E+002,  0.000000E+000,  9.898777E+001, -4.040368E-001,  4.683453E+000,  5.107519E-001
  1.211497E+002, -2.315804E+002,  0.000000E+000,  1.066877E+002, -4.675552E-001,  4.458769E+000,  5.102490E-001
  1.127882E+002, -2.225163E+002,  0.000000E+000,  1.132843E+002, -5.434968E-001,  4.167279E+000,  5.101239E-001
  1.126796E+002, -2.083661E+002,  0.000000E+000, -1.105191E+002, -1.216070E+000,  2.915937E+000,  5.103571E-001
  1.163826E+002, -2.101019E+002,  0.000000E+000,  1.176198E+002, -3.036532E-001,  3.638423E+000,  5.108263E-001
  1.180857E+002, -1.927106E+002,  0.000000E+000, -1.146313E+002, -1.026166E+000,  2.642642E+000,  5.109001E-001
  1.202874E+002, -1.948599E+002,  0.000000E+000,  1.220872E+002, -8.145644E-003,  2.902852E+000,  5.103232E-001
  1.245156E+002, -1.730242E+002,  0.000000E+000, -1.190613E+002, -5.620506E-001,  2.147632E+000,  5.105133E-001
  1.248226E+002, -1.766784E+002,  0.000000E+000,  1.266360E+002,  4.908986E-001,  1.669642E+000,  5.108862E-001
  1.322067E+002, -1.487421E+002,  0.000000E+000, -1.236667E+002, -1.419393E-001,  1.489344E+000,  5.100166E-001
  1.298978E+002, -1.552523E+002,  0.000000E+000,  1.313201E+002,  1.192503E+000,  5.025283E-001,  5.100338E-001
  1.406971E+002, -1.201000E+002,  0.000000E+000, -1.282123E+002,  1.188660E-001,  8.851566E-001,  5.104349E-001
  1.357615E+002, -1.293221E+002,  0.000000E+000,  1.360752E+002,  1.575836E+000, -7.504090E-001,  5.101027E-001
  1.497892E+002, -8.790448E+001,  0.000000E+000, -1.324042E+002,  3.373098E-001,  3.981960E-001,  5.108435E-001
  1.421970E+002, -9.961272E+001,  0.000000E+000,  1.405836E+002,  2.019069E+000, -1.812624E+000,  5.106012E-001
  1.581308E+002, -5.256830E+001,  0.000000E+000, -1.361855E+002,  6.084557E-001, -2.054327E-001,  5.106645E-001
  1.494235E+002, -6.676455E+001,  0.000000E+000,  1.443264E+002,  2.203576E+000, -2.616543E+000,  5.102068E-001
  1.650393E+002, -1.545438E+001,  0.000000E+000, -1.391158E+002,  6.169891E-001, -9.119195E-001,  5.102133E-001
  1.567023E+002, -3.102362E+001,  0.000000E+000,  1.463867E+002,  2.062803E+000, -2.842009E+000,  5.102230E-001
  1.708377E+002,  2.233129E+001,  0.000000E+000, -1.406126E+002,  2.799175E-001, -1.328362E+000,  5.107762E-001
  1.626565E+002,  7.307607E+000,  0.000000E+000,  1.462814E+002,  2.008617E+000, -3.032528E+000,  5.105490E-001
  1.746141E+002,  5.746770E+001,  0.000000E+000, -1.407890E+002, -1.048622E-001, -1.574319E+000,  5.103172E-001
  1.669271E+002,  4.445621E+001,  0.000000E+000,  1.450873E+002,  1.936402E+000, -3.110756E+000,  5.100489E-001
  1.765910E+002,  8.929772E+001,  0.000000E+000, -1.403751E+002, -5.253480E-001, -1.573722E+000,  5.103469E-001
  1.695138E+002,  7.861087E+001,  0.000000E+000,  1.433748E+002,  1.613002E+000, -2.970852E+000,  5.102359E-001
  1.774036E+002,  1.167482E+002,  0.000000E+000, -1.393280E+002, -9.946876E-001, -1.428596E+000,  5.105353E-001
  1.714910E+002,  1.103848E+002,  0.000000E+000,  1.412332E+002,  1.022855E+000, -2.894494E+000,  5.102980E-001
  1.777744E+002,  1.400113E+002,  0.000000E+000, -1.376056E+002, -1.407219E+000, -1.264887E+000,  5.100044E-001
  1.726657E+002,  1.387865E+002,  0.000000E+000,  1.386020E+002,  5.421852E-001, -2.945535E+000,  5.105759E-001
  1.774541E+002,  1.614088E+002,  0.000000E+000, -1.354846E+002, -1.520974E+000, -1.288287E+000,  5.104823E-001
  1.734753E+002,  1.638118E+002,  0.000000E+000,  1.354955E+002,  3.819507E-001, -2.907604E+000,  5.103567E-001
  1.759665E+002,  1.808638E+002,  0.000000E+000, -1.322896E+002, -1.230454E+000, -1.616853E+000,  5.106492E-001
  1.740674E+002,  1.870886E+002,  0.000000E+000,  1.319088E+002,  4.844994E-001, -2.687407E+000,  5.105394E-001
  1.735065E+002,  1.986596E+002,  0.000000E+000, -1.282665E+002, -5.677664E-001, -1.939325E+000,  5.103390E-001
  1.740931E+002,  2.071494E+002,  0.000000E+000,  1.278447E+002,  5.083344E-001, -2.341416E+000,  5.104939E-001
  1.706589E+002,  2.149835E+002,  0.000000E+000, -1.233927E+002,  1.846773E-001, -2.137646E+000,  5.106873E-001
  1.734847E+002,  2.238270E+002,  0.000000E+000,  1.236996E+002,  1.477146E-001, -1.915510E+000,  5.105847E-001
  1.678034E+002,  2.292820E+002,  0.000000E+000, -1.183074E+002,  9.193031E-001, -2.189047E+000,  5.102982E-001
  1.726302E+002,  2.381459E+002,  0.000000E+000,  1.194507E+002, -7.767450E-002, -1.610620E+000,  5.100204E-001
  1.649829E+002,  2.414835E+002,  0.000000E+000, -1.131970E+002,  1.431978E+000, -2.236127E+000,  5.104660E-001
  1.746861E+002,  2.527645E+002,  0.000000E+000, -1.051558E+002,  2.071683E+000, -2.136014E+000,  5.102975E-001
  1.852825E+002,  2.647161E+002,  0.000000E+000, -9.547150E+001,  2.561057E+000, -2.094474E+000,  5.103831E-001
  1.965532E+002,  2.764178E+002,  0.000000E+000, -8.444295E+001,  2.700945E+000, -1.913139E+000,  5.105294E-001
  2.083664E+002,  2.880323E+002,  0.000000E+000, -7.223633E+001,  2.600498E+000, -1.487337E+000,  5.107198E-001
  2.201819E+002,  2.989426E+002,  0.000000E+000, -5.921125E+001,  2.370561E+000, -8.382878E-001,  5.103856E-001
  2.319014E+002,  3.089339E+002,  0.000000E+000, -4.552798E+001,  2.351783E+000, -2.476165E-001,  5.101078E-001
  2.433237E+002,  3.171904E+002,  0.000000E+000, -3.156400E+001,  2.378919E+000,  6.671146E-001,  5.107327E-001
  2.522396E+002,  3.222110E+002,  0.000000E+000, -1.815189E+001,  1.842879E+000,  1.713919E+000,  5.103066E-001
  2.574171E+002,  3.247498E+002,  0.000000E+000, -5.049979E+000,  1.108394E+000,  2.576783E+000,  5.106096E-001
  2.584283E+002,  3.255322E+002,  0.000000E+000,  8.122532E+000,  6.955539E-001,  3.473789E+000,  5.101570E-001
  2.556731E+002,  3.237865E+002,  0.000000E+000,  2.141360E+001,  7.299046E-001,  3.519040E+000,  5.105066E-001
  2.488603E+002,  3.192147E+002,  0.000000E+000,  3.487793E+001,  6.326676E-001,  3.045292E+000,  5.104041E-001
  2.386374E+002,  3.118762E+002,  0.000000E+000,  4.896137E+001,  8.474077E-001,  2.400006E+000,  5.101481E-001
  2.264793E+002,  3.027248E+002,  0.000000E+000,  6.280385E+001,  9.442500E-001,  1.727642E+000,  5.100816E-001
  2.142586E+002,  2.929893E+002,  0.000000E+000,  7.582240E+001,  7.832419E-001,  1.061520E+000,  5.101325E-001
  2.024972E+002,  2.825208E+002,  0.000000E+000,  8.772735E+001,  6.172927E-001,  4.022673E-001,  5.101902E-001
  1.913997E+002,  2.715281E+002,  0.000000E+000,  9.840338E+001,  2.471876E-001, -2.538894E-001,  5.107171E-001
  1.810803E+002,  2.605416E+002,  0.000000E+000,  1.077133E+002, -8.671258E-002, -7.943567E-001,  5.102433E-001
  1.717676E+002,  2.496618E+002,  0.000000E+000,  1.152073E+002, -1.684749E-001, -1.279550E+000,  5.107408E-001
  1.276689E+002, -2.158844E+002,  0.000000E+000, -1.036183E+002, -1.258178E+000,  3.003588E+000,  5.101074E-001
  1.340661E+002, -2.235835E+002,  0.000000E+000, -9.804387E+001, -1.423678E+000,  3.011223E+000,  5.104196E-001
  1.407508E+002, -2.312617E+002,  0.000000E+000, -9.127821E+001, -1.393880E+000,  2.671504E+000,  5.106057E-001
  1.474779E+002, -2.389168E+002,  0.000000E+000, -8.322933E+001, -1.453883E+000,  2.113012E+000,  5.101863E-001
  1.532508E+002, -2.461419E+002,  0.000000E+000, -7.425346E+001, -1.652882E+000,  1.267311E+000,  5.108691E-001
  1.577570E+002, -2.531867E+002,  0.000000E+000, -6.354581E+001, -1.566824E+000, -1.166044E-001,  5.104115E-001
  1.626477E+002, -2.599497E+002,  0.000000E+000, -5.069156E+001, -1.493698E+000, -1.318724E+000,  5.110668E-001
  1.663914E+002, -2.658661E+002,  0.000000E+000, -3.636442E+001, -1.086577E+000, -1.899807E+000,  5.107375E-001
  1.690646E+002, -2.706586E+002,  0.000000E+000, -2.073132E+001, -4.746752E-001, -2.302487E+000,  5.102605E-001
  1.712768E+002, -2.739195E+002,  0.000000E+000, -3.665930E+000, -8.358682E-002, -1.675467E+000,  5.107804E-001
  1.734704E+002, -2.750751E+002,  0.000000E+000,  1.393909E+001,  2.212623E-001, -4.124527E-001,  5.103585E-001
  1.745414E+002, -2.739908E+002,  0.000000E+000,  3.080180E+001,  7.075697E-001,  1.388516E+000,  5.107423E-001
  1.741524E+002, -2.708343E+002,  0.000000E+000,  4.555104E+001,  1.254685E+000,  2.740524E+000,  5.100317E-001
  1.723505E+002, -2.661722E+002,  0.000000E+000,  5.807716E+001,  1.619513E+000,  3.716267E+000,  5.100516E-001
  1.689521E+002, -2.603891E+002,  0.000000E+000,  6.920583E+001,  1.595920E+000,  4.251952E+000,  5.103011E-001
  1.634824E+002, -2.532695E+002,  0.000000E+000,  7.876872E+001,  9.734833E-001,  4.257897E+000,  5.105853E-001
  1.568830E+002, -2.453779E+002,  0.000000E+000,  8.743410E+001,  3.117103E-001,  4.499734E+000,  5.104253E-001
  1.489728E+002, -2.369106E+002,  0.000000E+000,  9.558438E+001, -1.852989E-001,  4.413919E+000,  5.109620E-001
  1.401444E+002, -2.279133E+002,  0.000000E+000,  1.032002E+002, -4.134841E-001,  4.073729E+000,  5.100634E-001
  1.315472E+002, -2.188837E+002,  0.000000E+000,  1.098358E+002, -4.208124E-001,  3.828965E+000,  5.104142E-001
  1.335132E+002, -2.029447E+002,  0.000000E+000, -1.071620E+002, -1.120246E+000,  2.631717E+000,  5.108471E-001
  1.358996E+002, -2.056151E+002,  0.000000E+000,  1.138465E+002, -1.817765E-001,  3.161592E+000,  5.100348E-001
  1.403359E+002, -1.862276E+002,  0.000000E+000, -1.110693E+002, -7.814299E-001,  2.126319E+000,  5.103791E-001
  1.409121E+002, -1.898797E+002,  0.000000E+000,  1.179925E+002,  5.494429E-002,  2.209544E+000,  5.102596E-001
  1.478951E+002, -1.658987E+002,  0.000000E+000, -1.151894E+002, -2.702050E-001,  1.531629E+000,  5.100389E-001
  1.464729E+002, -1.714459E+002,  0.000000E+000,  1.222263E+002,  5.693297E-001,  1.058720E+000,  5.107668E-001
  1.559274E+002, -1.414364E+002,  0.000000E+000, -1.195126E+002,  1.700252E-001,  7.729623E-001,  5.104631E-001
  1.526543E+002, -1.497105E+002,  0.000000E+000,  1.265509E+002,  1.132793E+000, -1.856113E-001,  5.101653E-001
  1.641982E+002, -1.128558E+002,  0.000000E+000, -1.236873E+002,  4.421216E-001,  1.614253E-001,  5.106200E-001
  1.593644E+002, -1.237846E+002,  0.000000E+000,  1.307909E+002,  1.656099E+000, -1.219237E+000,  5.107407E-001
  1.723410E+002, -8.143725E+001,  0.000000E+000, -1.275217E+002,  9.345429E-001, -1.537941E-001,  5.106106E-001
  1.662802E+002, -9.393275E+001,  0.000000E+000,  1.347564E+002,  2.025634E+000, -2.106248E+000,  5.107722E-001
  1.799801E+002, -4.750980E+001,  0.000000E+000, -1.308762E+002,  1.313304E+000, -5.857754E-001,  5.101706E-001
  1.730522E+002, -6.092479E+001,  0.000000E+000,  1.378790E+002,  2.063822E+000, -2.539263E+000,  5.100522E-001
  1.864596E+002, -1.156972E+001,  0.000000E+000, -1.329695E+002,  1.361141E+000, -1.101869E+000,  5.105086E-001
  1.788242E+002, -2.600953E+001,  0.000000E+000,  1.394511E+002,  1.738953E+000, -2.812086E+000,  5.100399E-001
  1.912210E+002,  2.439366E+001,  0.000000E+000, -1.339231E+002,  1.007159E+000, -1.324392E+000,  5.105091E-001
  1.831433E+002,  1.039606E+001,  0.000000E+000,  1.393021E+002,  1.451990E+000, -2.916041E+000,  5.104363E-001
  1.940160E+002,  5.737548E+001,  0.000000E+000, -1.342668E+002,  6.117581E-001, -1.488118E+000,  5.100061E-001
  1.861405E+002,  4.526344E+001,  0.000000E+000,  1.384294E+002,  1.426895E+000, -2.798466E+000,  5.106427E-001
  1.955474E+002,  8.787776E+001,  0.000000E+000, -1.341927E+002,  1.530493E-001, -1.335552E+000,  5.105600E-001
  1.882875E+002,  7.795864E+001,  0.000000E+000,  1.370523E+002,  1.262478E+000, -2.530339E+000,  5.106531E-001
  1.961698E+002,  1.151254E+002,  0.000000E+000, -1.334893E+002, -2.545963E-001, -1.335800E+000,  5.104768E-001
  1.897597E+002,  1.086015E+002,  0.000000E+000,  1.353586E+002,  8.796592E-001, -2.439529E+000,  5.107944E-001
  1.962597E+002,  1.386289E+002,  0.000000E+000, -1.321891E+002, -6.337523E-001, -1.229892E+000,  5.105933E-001
  1.902463E+002,  1.363435E+002,  0.000000E+000,  1.332517E+002,  5.144244E-001, -2.526885E+000,  5.106532E-001
  1.962180E+002,  1.598448E+002,  0.000000E+000, -1.303721E+002, -7.714859E-001, -1.226775E+000,  5.102277E-001
  1.903782E+002,  1.613972E+002,  0.000000E+000,  1.307160E+002,  2.372475E-001, -2.568157E+000,  5.103787E-001
  1.957521E+002,  1.795740E+002,  0.000000E+000, -1.275160E+002, -6.652745E-001, -1.422747E+000,  5.104144E-001
  1.903728E+002,  1.844943E+002,  0.000000E+000,  1.275573E+002,  2.863613E-001, -2.439222E+000,  5.100995E-001
  1.943220E+002,  1.974063E+002,  0.000000E+000, -1.236248E+002, -2.584769E-001, -1.672695E+000,  5.104428E-001
  1.901242E+002,  2.051994E+002,  0.000000E+000,  1.237936E+002,  2.764510E-001, -2.174540E+000,  5.104277E-001
  1.917507E+002,  2.135477E+002,  0.000000E+000, -1.189740E+002,  4.062761E-001, -1.828117E+000,  5.105625E-001
  1.896270E+002,  2.221827E+002,  0.000000E+000,  1.198748E+002,  5.706706E-002, -1.865617E+000,  5.104439E-001
  1.884019E+002,  2.281278E+002,  0.000000E+000, -1.140983E+002,  1.110024E+000, -1.994306E+000,  5.101651E-001
  1.888490E+002,  2.369876E+002,  0.000000E+000,  1.157039E+002, -1.594590E-001, -1.645680E+000,  5.103681E-001
  1.850522E+002,  2.406822E+002,  0.000000E+000, -1.092244E+002,  1.593443E+000, -2.064512E+000,  5.107874E-001
  1.954076E+002,  2.518419E+002,  0.000000E+000, -1.008426E+002,  2.135400E+000, -2.025467E+000,  5.100106E-001
  2.065027E+002,  2.635545E+002,  0.000000E+000, -9.095109E+001,  2.552121E+000, -1.961314E+000,  5.100056E-001
  2.182311E+002,  2.754479E+002,  0.000000E+000, -7.972444E+001,  2.589842E+000, -1.705054E+000,  5.104580E-001
  2.302834E+002,  2.868086E+002,  0.000000E+000, -6.775265E+001,  2.521041E+000, -1.255726E+000,  5.106054E-001
  2.422268E+002,  2.976589E+002,  0.000000E+000, -5.502227E+001,  2.232898E+000, -6.174171E-001,  5.106795E-001
  2.534406E+002,  3.073322E+002,  0.000000E+000, -4.169913E+001,  2.092377E+000, -2.133645E-002,  5.101118E-001
  2.624133E+002,  3.153088E+002,  0.000000E+000, -2.836919E+001,  2.023197E+000,  8.474188E-001,  5.104616E-001
  2.682996E+002,  3.196765E+002,  0.000000E+000, -1.598844E+001,  1.627087E+000,  1.596194E+000,  5.105106E-001
  2.714814E+002,  3.218365E+002,  0.000000E+000, -4.064685E+000,  9.604180E-001,  2.380950E+000,  5.108512E-001
  2.725387E+002,  3.224043E+002,  0.000000E+000,  7.681945E+000,  4.727351E-001,  2.956682E+000,  5.101578E-001
  2.699011E+002,  3.209602E+002,  0.000000E+000,  1.947435E+001,  5.509405E-001,  3.222008E+000,  5.101156E-001
  2.640241E+002,  3.171789E+002,  0.000000E+000,  3.182694E+001,  7.038353E-001,  2.921283E+000,  5.106511E-001
  2.555667E+002,  3.111380E+002,  0.000000E+000,  4.455648E+001,  8.430325E-001,  2.183819E+000,  5.107747E-001
  2.443346E+002,  3.026374E+002,  0.000000E+000,  5.784930E+001,  8.345790E-001,  1.434184E+000,  5.106463E-001
  2.319848E+002,  2.928945E+002,  0.000000E+000,  7.062889E+001,  7.427198E-001,  7.539630E-001,  5.103065E-001
  2.199861E+002,  2.822509E+002,  0.000000E+000,  8.276022E+001,  6.037758E-001,  1.068475E-001,  5.107720E-001
  2.086227E+002,  2.713314E+002,  0.000000E+000,  9.355413E+001,  3.393430E-001, -5.135662E-001,  5.103115E-001
  1.979308E+002,  2.602057E+002,  0.000000E+000,  1.031599E+002, -4.905387E-002, -9.832045E-001,  5.105037E-001
  1.879236E+002,  2.494111E+002,  0.000000E+000,  1.113845E+002, -2.005466E-001, -1.388267E+000,  5.103696E-001
  1.442936E+002, -2.101477E+002,  0.000000E+000, -1.009661E+002, -1.355015E+000,  2.592926E+000,  5.109023E-001
  1.504193E+002, -2.177013E+002,  0.000000E+000, -9.528376E+001, -1.362163E+000,  2.613584E+000,  5.107508E-001
  1.564682E+002, -2.253529E+002,  0.000000E+000, -8.834250E+001, -1.321195E+000,  2.272612E+000,  5.103450E-001
  1.617783E+002, -2.329017E+002,  0.000000E+000, -8.059332E+001, -1.580600E+000,  1.842687E+000,  5.101638E-001
  1.662635E+002, -2.398583E+002,  0.000000E+000, -7.182984E+001, -1.711040E+000,  1.029293E+000,  5.108418E-001
  1.709147E+002, -2.465486E+002,  0.000000E+000, -6.085368E+001, -1.731582E+000, -1.489115E-001,  5.107689E-001
  1.752756E+002, -2.527666E+002,  0.000000E+000, -4.835964E+001, -1.576552E+000, -1.141379E+000,  5.100107E-001
  1.790057E+002, -2.578318E+002,  0.000000E+000, -3.462044E+001, -9.995020E-001, -1.651523E+000,  5.103285E-001
  1.818059E+002, -2.620243E+002,  0.000000E+000, -1.954484E+001, -2.664257E-001, -1.918567E+000,  5.110255E-001
  1.843121E+002, -2.648200E+002,  0.000000E+000, -2.974294E+000,  8.576687E-003, -1.512124E+000,  5.100037E-001
  1.864237E+002, -2.661288E+002,  0.000000E+000,  1.405027E+001,  3.312296E-001, -4.753155E-001,  5.102422E-001
  1.876165E+002, -2.654235E+002,  0.000000E+000,  3.019518E+001,  8.044021E-001,  8.156991E-001,  5.105741E-001
  1.870044E+002, -2.631183E+002,  0.000000E+000,  4.433374E+001,  1.459469E+000,  2.159807E+000,  5.100390E-001
  1.850238E+002, -2.592166E+002,  0.000000E+000,  5.651797E+001,  1.796389E+000,  3.013454E+000,  5.100310E-001
  1.821663E+002, -2.539039E+002,  0.000000E+000,  6.730228E+001,  1.966723E+000,  3.563800E+000,  5.106594E-001
  1.782687E+002, -2.475898E+002,  0.000000E+000,  7.644073E+001,  1.531764E+000,  3.744427E+000,  5.100512E-001
  1.722422E+002, -2.402269E+002,  0.000000E+000,  8.490688E+001,  7.343933E-001,  3.998187E+000,  5.103655E-001
  1.656088E+002, -2.322845E+002,  0.000000E+000,  9.254553E+001,  6.075617E-002,  4.075546E+000,  5.104947E-001
  1.574554E+002, -2.239417E+002,  0.000000E+000,  9.975672E+001, -2.305900E-001,  3.706170E+000,  5.105274E-001
  1.486922E+002, -2.146806E+002,  0.000000E+000,  1.064496E+002, -2.475870E-001,  3.408580E+000,  5.100070E-001
  1.509666E+002, -1.964583E+002,  0.000000E+000, -1.043369E+002, -1.075369E+000,  2.086047E+000,  5.108697E-001
  1.537293E+002, -2.007886E+002,  0.000000E+000,  1.102480E+002, -9.275087E-002,  2.595144E+000,  5.101264E-001
  1.589384E+002, -1.789712E+002,  0.000000E+000, -1.079571E+002, -5.280302E-001,  1.466395E+000,  5.103066E-001
  1.594395E+002, -1.845434E+002,  0.000000E+000,  1.141778E+002,  1.858496E-001,  1.625147E+000,  5.102117E-001
  1.673129E+002, -1.587000E+002,  0.000000E+000, -1.116995E+002,  1.063810E-001,  7.578222E-001,  5.108261E-001
  1.659499E+002, -1.656253E+002,  0.000000E+000,  1.180677E+002,  5.517041E-001,  4.269970E-001,  5.103663E-001
  1.756540E+002, -1.345066E+002,  0.000000E+000, -1.155991E+002,  6.681461E-001, -1.479921E-002,  5.104589E-001
  1.730930E+002, -1.435039E+002,  0.000000E+000,  1.219198E+002,  1.119128E+000, -6.968341E-001,  5.100903E-001
  1.833261E+002, -1.063909E+002,  0.000000E+000, -1.193187E+002,  1.203366E+000, -3.651333E-001,  5.100335E-001
  1.802153E+002, -1.179081E+002,  0.000000E+000,  1.256415E+002,  1.661305E+000, -1.535981E+000,  5.102943E-001
  1.906280E+002, -7.586596E+001,  0.000000E+000, -1.227885E+002,  1.749509E+000, -6.113057E-001,  5.101926E-001
  1.871579E+002, -8.822582E+001,  0.000000E+000,  1.288336E+002,  1.991708E+000, -2.187316E+000,  5.101755E-001
  1.971836E+002, -4.298340E+001,  0.000000E+000, -1.254524E+002,  2.102586E+000, -8.750278E-001,  5.107829E-001
  1.929537E+002, -5.572056E+001,  0.000000E+000,  1.309936E+002,  1.800715E+000, -2.352501E+000,  5.102244E-001
  2.023342E+002, -8.526639E+000,  0.000000E+000, -1.268355E+002,  1.979503E+000, -1.213961E+000,  5.103110E-001
  1.974795E+002, -2.164143E+001,  0.000000E+000,  1.318736E+002,  1.340463E+000, -2.410244E+000,  5.101784E-001
  2.060674E+002,  2.493296E+001,  0.000000E+000, -1.277668E+002,  1.663939E+000, -1.386319E+000,  5.105077E-001
  2.007161E+002,  1.254324E+001,  0.000000E+000,  1.317524E+002,  1.204515E+000, -2.297771E+000,  5.102182E-001
  2.084997E+002,  5.635688E+001,  0.000000E+000, -1.282984E+002,  1.401686E+000, -1.318307E+000,  5.105961E-001
  2.031063E+002,  4.555403E+001,  0.000000E+000,  1.312150E+002,  1.187563E+000, -2.156588E+000,  5.105945E-001
  2.100464E+002,  8.550375E+001,  0.000000E+000, -1.283078E+002,  1.023938E+000, -1.363096E+000,  5.106817E-001
  2.048880E+002,  7.684220E+001,  0.000000E+000,  1.302905E+002,  1.043575E+000, -1.877626E+000,  5.104617E-001
  2.110958E+002,  1.125122E+002,  0.000000E+000, -1.278884E+002,  5.172198E-001, -1.333488E+000,  5.102371E-001
  2.061108E+002,  1.062699E+002,  0.000000E+000,  1.290543E+002,  6.862526E-001, -1.834846E+000,  5.101264E-001
  2.117694E+002,  1.364776E+002,  0.000000E+000, -1.269613E+002,  1.405623E-001, -1.325498E+000,  5.100230E-001
  2.064834E+002,  1.333682E+002,  0.000000E+000,  1.274131E+002,  3.816391E-001, -1.952225E+000,  5.106378E-001
  2.120422E+002,  1.577673E+002,  0.000000E+000, -1.252828E+002, -1.339868E-001, -1.254471E+000,  5.106174E-001
  2.064414E+002,  1.582534E+002,  0.000000E+000,  1.253029E+002,  1.609258E-001, -2.033601E+000,  5.106754E-001
  2.118090E+002,  1.777810E+002,  0.000000E+000, -1.225534E+002, -2.187717E-001, -1.330212E+000,  5.101758E-001
  2.059333E+002,  1.812308E+002,  0.000000E+000,  1.225388E+002,  1.517010E-001, -2.008804E+000,  5.101204E-001
  2.110819E+002,  1.957954E+002,  0.000000E+000, -1.188607E+002, -4.450355E-003, -1.572790E+000,  5.102258E-001
  2.051940E+002,  2.021275E+002,  0.000000E+000,  1.192118E+002,  1.371031E-001, -1.867431E+000,  5.103901E-001
  2.094060E+002,  2.119781E+002,  0.000000E+000, -1.145037E+002,  5.401882E-001, -1.678446E+000,  5.107417E-001
  2.043060E+002,  2.201001E+002,  0.000000E+000,  1.155133E+002, -1.457963E-002, -1.715269E+000,  5.100750E-001
  2.069237E+002,  2.264312E+002,  0.000000E+000, -1.098797E+002,  1.187453E+000, -1.860574E+000,  5.106598E-001
  2.035670E+002,  2.353537E+002,  0.000000E+000,  1.114484E+002, -1.354865E-001, -1.661945E+000,  5.105545E-001
  2.036929E+002,  2.394162E+002,  0.000000E+000, -1.051833E+002,  1.696742E+000, -2.002791E+000,  5.100650E-001
  2.142447E+002,  2.504132E+002,  0.000000E+000, -9.656494E+001,  2.119469E+000, -1.962488E+000,  5.105724E-001
  2.251900E+002,  2.618605E+002,  0.000000E+000, -8.649962E+001,  2.315416E+000, -1.836917E+000,  5.102774E-001
  2.364490E+002,  2.735009E+002,  0.000000E+000, -7.538557E+001,  2.338249E+000, -1.541286E+000,  5.103877E-001
  2.475034E+002,  2.849586E+002,  0.000000E+000, -6.365868E+001,  2.293939E+000, -1.141421E+000,  5.105606E-001
  2.577300E+002,  2.953981E+002,  0.000000E+000, -5.144924E+001,  1.936378E+000, -5.205202E-001,  5.100665E-001
  2.663198E+002,  3.046640E+002,  0.000000E+000, -3.884156E+001,  1.655069E+000,  8.038387E-002,  5.106320E-001
  2.726564E+002,  3.117939E+002,  0.000000E+000, -2.641838E+001,  1.518629E+000,  7.563433E-001,  5.102388E-001
  2.762612E+002,  3.161651E+002,  0.000000E+000, -1.474080E+001,  1.071980E+000,  1.388664E+000,  5.103812E-001
  2.773659E+002,  3.180871E+002,  0.000000E+000, -3.729729E+000,  5.532761E-001,  2.054705E+000,  5.104057E-001
  2.771766E+002,  3.185810E+002,  0.000000E+000,  7.141739E+000,  3.011581E-001,  2.408758E+000,  5.104836E-001
  2.756352E+002,  3.170897E+002,  0.000000E+000,  1.803487E+001,  4.835207E-001,  2.693986E+000,  5.107596E-001
  2.722134E+002,  3.140552E+002,  0.000000E+000,  2.930985E+001,  5.553652E-001,  2.653841E+000,  5.107067E-001
  2.660209E+002,  3.088938E+002,  0.000000E+000,  4.110499E+001,  6.509374E-001,  2.067462E+000,  5.102986E-001
  2.571820E+002,  3.013660E+002,  0.000000E+000,  5.353052E+001,  6.557418E-001,  1.234062E+000,  5.100348E-001
  2.465806E+002,  2.917580E+002,  0.000000E+000,  6.590675E+001,  5.028641E-001,  6.258621E-001,  5.108252E-001
  2.351089E+002,  2.813509E+002,  0.000000E+000,  7.781525E+001,  4.384671E-001, -3.115979E-002,  5.100348E-001
  2.236965E+002,  2.703149E+002,  0.000000E+000,  8.889103E+001,  3.715934E-001, -6.234700E-001,  5.101446E-001
  2.129239E+002,  2.593259E+002,  0.000000E+000,  9.855695E+001,  7.427897E-002, -1.110021E+000,  5.102331E-001
  2.026961E+002,  2.484739E+002,  0.000000E+000,  1.070639E+002, -1.351034E-001, -1.490336E+000,  5.103124E-001
  1.591609E+002, -2.041072E+002,  0.000000E+000, -9.845330E+001, -1.196519E+000,  2.075812E+000,  5.102307E-001
  1.647694E+002, -2.115200E+002,  0.000000E+000, -9.263449E+001, -1.217430E+000,  2.006297E+000,  5.105968E-001
  1.696513E+002, -2.190232E+002,  0.000000E+000, -8.580384E+001, -1.341819E+000,  1.758874E+000,  5.106732E-001
  1.741449E+002, -2.262865E+002,  0.000000E+000, -7.826878E+001, -1.555917E+000,  1.394588E+000,  5.109382E-001
  1.785523E+002, -2.330246E+002,  0.000000E+000, -6.931362E+001, -1.762831E+000,  6.827489E-001,  5.105326E-001
  1.826210E+002, -2.395468E+002,  0.000000E+000, -5.837686E+001, -1.760356E+000, -2.502103E-001,  5.105239E-001
  1.865579E+002, -2.452021E+002,  0.000000E+000, -4.611986E+001, -1.557353E+000, -9.380239E-001,  5.109716E-001
  1.902372E+002, -2.498267E+002,  0.000000E+000, -3.282039E+001, -8.005677E-001, -1.503796E+000,  5.102887E-001
  1.931829E+002, -2.535076E+002,  0.000000E+000, -1.829303E+001, -1.789048E-002, -1.706548E+000,  5.102250E-001
  1.957533E+002, -2.557953E+002,  0.000000E+000, -2.315609E+000,  3.753368E-001, -1.394142E+000,  5.101728E-001
  1.978774E+002, -2.569478E+002,  0.000000E+000,  1.404168E+001,  6.748912E-001, -6.242724E-001,  5.109887E-001
  1.987291E+002, -2.567107E+002,  0.000000E+000,  2.951376E+001,  1.130007E+000,  2.012751E-001,  5.102998E-001
  1.983260E+002, -2.549093E+002,  0.000000E+000,  4.283727E+001,  1.494167E+000,  1.422682E+000,  5.102440E-001
  1.964633E+002, -2.515921E+002,  0.000000E+000,  5.494271E+001,  1.756376E+000,  2.138571E+000,  5.103202E-001
  1.938609E+002, -2.468747E+002,  0.000000E+000,  6.542900E+001,  1.904938E+000,  2.598431E+000,  5.105103E-001
  1.906314E+002, -2.411394E+002,  0.000000E+000,  7.448047E+001,  1.680654E+000,  2.917195E+000,  5.102330E-001
  1.859941E+002, -2.344510E+002,  0.000000E+000,  8.243542E+001,  1.061800E+000,  3.216056E+000,  5.107093E-001
  1.795426E+002, -2.270606E+002,  0.000000E+000,  8.981316E+001,  3.426492E-001,  3.352178E+000,  5.109508E-001
  1.727385E+002, -2.188287E+002,  0.000000E+000,  9.664877E+001, -2.424584E-002,  3.105174E+000,  5.103442E-001
  1.648968E+002, -2.100504E+002,  0.000000E+000,  1.031268E+002, -1.050110E-001,  2.867542E+000,  5.107390E-001
  1.668241E+002, -1.890963E+002,  0.000000E+000, -1.017317E+002, -7.683723E-001,  1.387936E+000,  5.103432E-001
  1.704734E+002, -1.958285E+002,  0.000000E+000,  1.066764E+002,  7.811490E-002,  1.986003E+000,  5.105586E-001
  1.751380E+002, -1.714934E+002,  0.000000E+000, -1.051541E+002, -2.606005E-001,  7.634253E-001,  5.103649E-001
  1.767302E+002, -1.789031E+002,  0.000000E+000,  1.104105E+002,  1.917438E-001,  8.928342E-001,  5.101259E-001
  1.834536E+002, -1.514622E+002,  0.000000E+000, -1.086180E+002,  3.721640E-001,  2.817093E-002,  5.101665E-001
  1.836634E+002, -1.594149E+002,  0.000000E+000,  1.140636E+002,  4.724132E-001, -2.189402E-001,  5.101321E-001
  1.911604E+002, -1.279436E+002,  0.000000E+000, -1.120188E+002,  1.192544E+000, -4.844390E-001,  5.107357E-001
  1.908981E+002, -1.372377E+002,  0.000000E+000,  1.175192E+002,  1.028755E+000, -1.072796E+000,  5.105338E-001
  1.984679E+002, -1.008078E+002,  0.000000E+000, -1.152670E+002,  1.978004E+000, -7.835166E-001,  5.106338E-001
  1.983355E+002, -1.113767E+002,  0.000000E+000,  1.205200E+002,  1.505469E+000, -1.775140E+000,  5.105877E-001
  2.052765E+002, -7.077191E+001,  0.000000E+000, -1.181255E+002,  2.546802E+000, -9.848439E-001,  5.104829E-001
  2.047122E+002, -8.232152E+001,  0.000000E+000,  1.227556E+002,  1.638186E+000, -2.107793E+000,  5.104294E-001
  2.111208E+002, -3.859219E+001,  0.000000E+000, -1.200170E+002,  2.807854E+000, -1.218799E+000,  5.100980E-001
  2.095537E+002, -5.070448E+001,  0.000000E+000,  1.240644E+002,  1.223009E+000, -2.177793E+000,  5.104992E-001
  2.153891E+002, -6.193426E+000,  0.000000E+000, -1.210982E+002,  2.649260E+000, -1.419066E+000,  5.101355E-001
  2.131312E+002, -1.795206E+001,  0.000000E+000,  1.243206E+002,  9.657679E-001, -1.981437E+000,  5.100715E-001
  2.183721E+002,  2.504235E+001,  0.000000E+000, -1.219791E+002,  2.285590E+000, -1.423716E+000,  5.103409E-001
  2.158577E+002,  1.427321E+001,  0.000000E+000,  1.242089E+002,  8.866475E-001, -1.857732E+000,  5.104352E-001
  2.204244E+002,  5.503877E+001,  0.000000E+000, -1.225800E+002,  2.107648E+000, -1.409331E+000,  5.102424E-001
  2.179037E+002,  4.542803E+001,  0.000000E+000,  1.238441E+002,  8.271155E-001, -1.636008E+000,  5.105524E-001
  2.217714E+002,  8.295427E+001,  0.000000E+000, -1.227017E+002,  1.788968E+000, -1.488337E+000,  5.103211E-001
  2.193021E+002,  7.525830E+001,  0.000000E+000,  1.232644E+002,  7.539727E-001, -1.392953E+000,  5.103637E-001
  2.228179E+002,  1.093671E+002,  0.000000E+000, -1.224914E+002,  1.360597E+000, -1.447692E+000,  5.103940E-001
  2.200616E+002,  1.034311E+002,  0.000000E+000,  1.223997E+002,  5.645208E-001, -1.325317E+000,  5.100486E-001
  2.236987E+002,  1.333935E+002,  0.000000E+000, -1.218249E+002,  9.812418E-001, -1.471720E+000,  5.101356E-001
  2.204831E+002,  1.298296E+002,  0.000000E+000,  1.211391E+002,  2.319011E-001, -1.354659E+000,  5.104680E-001
  2.245208E+002,  1.551619E+002,  0.000000E+000, -1.202435E+002,  5.476597E-001, -1.343960E+000,  5.100120E-001
  2.205555E+002,  1.543752E+002,  0.000000E+000,  1.193826E+002,  2.154533E-002, -1.407807E+000,  5.107671E-001
  2.249948E+002,  1.753912E+002,  0.000000E+000, -1.176989E+002,  1.548009E-001, -1.335381E+000,  5.100968E-001
  2.201666E+002,  1.771579E+002,  0.000000E+000,  1.168883E+002, -5.724441E-002, -1.491660E+000,  5.103757E-001
  2.245344E+002,  1.936557E+002,  0.000000E+000, -1.142784E+002,  2.653501E-001, -1.503079E+000,  5.104053E-001
  2.194716E+002,  1.981595E+002,  0.000000E+000,  1.138443E+002, -8.471294E-002, -1.469378E+000,  5.106563E-001
  2.232633E+002,  2.098597E+002,  0.000000E+000, -1.101506E+002,  6.974512E-001, -1.604437E+000,  5.107527E-001
  2.183378E+002,  2.169261E+002,  0.000000E+000,  1.105675E+002, -1.817097E-001, -1.449800E+000,  5.107843E-001
  2.216229E+002,  2.244930E+002,  0.000000E+000, -1.057104E+002,  1.149879E+000, -1.786623E+000,  5.105109E-001
  2.170778E+002,  2.330411E+002,  0.000000E+000,  1.068228E+002, -1.517840E-001, -1.547052E+000,  5.107714E-001
  2.193858E+002,  2.376275E+002,  0.000000E+000, -1.011758E+002,  1.679090E+000, -1.905310E+000,  5.106797E-001
  2.293360E+002,  2.484344E+002,  0.000000E+000, -9.240424E+001,  1.896061E+000, -1.887901E+000,  5.106084E-001
  2.394121E+002,  2.596494E+002,  0.000000E+000, -8.239864E+001,  2.003770E+000, -1.747914E+000,  5.101581E-001
  2.493770E+002,  2.710831E+002,  0.000000E+000, -7.161215E+001,  1.993246E+000, -1.456641E+000,  5.106406E-001
  2.585541E+002,  2.821058E+002,  0.000000E+000, -6.038797E+001,  1.833526E+000, -1.081655E+000,  5.108049E-001
  2.665791E+002,  2.922848E+002,  0.000000E+000, -4.878027E+001,  1.526797E+000, -5.003079E-001,  5.105659E-001
  2.732144E+002,  3.009880E+002,  0.000000E+000, -3.688664E+001,  1.190948E+000,  2.568499E-002,  5.101610E-001
  2.774091E+002,  3.076584E+002,  0.000000E+000, -2.529769E+001,  9.277748E-001,  5.679164E-001,  5.105742E-001
  2.795507E+002,  3.118677E+002,  0.000000E+000, -1.432825E+001,  5.344860E-001,  1.148199E+000,  5.102024E-001
  2.802973E+002,  3.138597E+002,  0.000000E+000, -3.732748E+000,  2.370719E-001,  1.626614E+000,  5.107597E-001
  2.801705E+002,  3.141168E+002,  0.000000E+000,  6.780678E+000,  1.243780E-001,  1.959856E+000,  5.104185E-001
  2.789068E+002,  3.128249E+002,  0.000000E+000,  1.709654E+001,  3.138855E-001,  2.163533E+000,  5.105114E-001
  2.764233E+002,  3.099778E+002,  0.000000E+000,  2.766096E+001,  5.402528E-001,  2.215474E+000,  5.100229E-001
  2.723589E+002,  3.052391E+002,  0.000000E+000,  3.858026E+001,  5.383097E-001,  1.921177E+000,  5.101212E-001
  2.661442E+002,  2.981686E+002,  0.000000E+000,  5.009995E+001,  4.146163E-001,  1.208360E+000,  5.102329E-001
  2.573625E+002,  2.890628E+002,  0.000000E+000,  6.190142E+001,  2.953147E-001,  5.642744E-001,  5.108098E-001
  2.474417E+002,  2.789878E+002,  0.000000E+000,  7.335894E+001,  2.139400E-001,  1.101871E-002,  5.100629E-001
  2.369276E+002,  2.683233E+002,  0.000000E+000,  8.428045E+001,  1.496241E-001, -5.539870E-001,  5.103566E-001
  2.261979E+002,  2.573399E+002,  0.000000E+000,  9.405579E+001,  4.040169E-002, -1.052105E+000,  5.102028E-001
  2.158482E+002,  2.467451E+002,  0.000000E+000,  1.026686E+002, -4.895939E-002, -1.471375E+000,  5.106093E-001
  1.726902E+002, -1.973641E+002,  0.000000E+000, -9.612177E+001, -8.855072E-001,  1.259974E+000,  5.104122E-001
  1.774250E+002, -2.045306E+002,  0.000000E+000, -9.024641E+001, -9.576430E-001,  1.117064E+000,  5.104396E-001
  1.818127E+002, -2.116857E+002,  0.000000E+000, -8.348379E+001, -1.149182E+000,  1.002736E+000,  5.106582E-001
  1.862269E+002, -2.183549E+002,  0.000000E+000, -7.592503E+001, -1.325500E+000,  7.054000E-001,  5.108470E-001
  1.899197E+002, -2.250535E+002,  0.000000E+000, -6.698793E+001, -1.564201E+000,  1.651142E-001,  5.105550E-001
  1.936973E+002, -2.314768E+002,  0.000000E+000, -5.601238E+001, -1.547083E+000, -4.392735E-001,  5.106527E-001
  1.973289E+002, -2.370282E+002,  0.000000E+000, -4.398689E+001, -1.294711E+000, -7.837827E-001,  5.108295E-001
  2.007564E+002, -2.413987E+002,  0.000000E+000, -3.113904E+001, -4.805676E-001, -1.161293E+000,  5.105543E-001
  2.037079E+002, -2.445831E+002,  0.000000E+000, -1.703376E+001,  2.941020E-001, -1.452022E+000,  5.106434E-001
  2.063559E+002, -2.465953E+002,  0.000000E+000, -1.617675E+000,  8.360571E-001, -1.198276E+000,  5.102164E-001
  2.083824E+002, -2.476487E+002,  0.000000E+000,  1.394614E+001,  1.169801E+000, -6.824735E-001,  5.105089E-001
  2.091211E+002, -2.474479E+002,  0.000000E+000,  2.868462E+001,  1.596308E+000, -2.595227E-001,  5.100493E-001
  2.089250E+002, -2.456536E+002,  0.000000E+000,  4.169715E+001,  1.710274E+000,  3.937735E-001,  5.107899E-001
  2.076869E+002, -2.427899E+002,  0.000000E+000,  5.321536E+001,  1.644328E+000,  1.018921E+000,  5.101206E-001
  2.051990E+002, -2.388537E+002,  0.000000E+000,  6.359163E+001,  1.673931E+000,  1.310739E+000,  5.102161E-001
  2.019252E+002, -2.337308E+002,  0.000000E+000,  7.265553E+001,  1.532196E+000,  1.697759E+000,  5.102289E-001
  1.979457E+002, -2.279118E+002,  0.000000E+000,  8.018513E+001,  1.045127E+000,  2.114904E+000,  5.100985E-001
  1.923557E+002, -2.209209E+002,  0.000000E+000,  8.729542E+001,  5.604848E-001,  2.382812E+000,  5.106969E-001
  1.859490E+002, -2.131023E+002,  0.000000E+000,  9.399021E+001,  2.172915E-001,  2.342062E+000,  5.106038E-001
  1.792018E+002, -2.050643E+002,  0.000000E+000,  1.001291E+002,  5.345924E-002,  2.202326E+000,  5.107845E-001
  1.803672E+002, -1.819359E+002,  0.000000E+000, -9.936585E+001, -4.064698E-001,  6.234805E-001,  5.102729E-001
  1.853335E+002, -1.898061E+002,  0.000000E+000, -9.374566E+001, -4.467105E-001,  4.424637E-001,  5.100238E-001
  1.904472E+002, -1.973427E+002,  0.000000E+000, -8.693772E+001, -5.945662E-001,  2.800454E-001,  5.109254E-001
  1.953350E+002, -2.045181E+002,  0.000000E+000, -7.924579E+001, -7.685163E-001,  1.194368E-001,  5.103168E-001
  1.993771E+002, -2.114573E+002,  0.000000E+000, -7.054667E+001, -1.103991E+000, -1.206996E-001,  5.104515E-001
  2.034609E+002, -2.185492E+002,  0.000000E+000, -5.941097E+001, -1.277497E+000, -5.523846E-001,  5.104700E-001
  2.075330E+002, -2.248627E+002,  0.000000E+000, -4.678232E+001, -1.206487E+000, -8.702143E-001,  5.103300E-001
  2.112162E+002, -2.299253E+002,  0.000000E+000, -3.317763E+001, -4.625139E-001, -1.063141E+000,  5.104510E-001
  2.144357E+002, -2.334546E+002,  0.000000E+000, -1.813698E+001,  3.648855E-001, -1.249828E+000,  5.104409E-001
  2.175165E+002, -2.355362E+002,  0.000000E+000, -1.791594E+000,  1.050886E+000, -1.209962E+000,  5.103346E-001
  2.197452E+002, -2.364952E+002,  0.000000E+000,  1.466774E+001,  1.542255E+000, -9.269632E-001,  5.102731E-001
  2.204119E+002, -2.360566E+002,  0.000000E+000,  3.017843E+001,  1.997729E+000, -9.584253E-001,  5.103359E-001
  2.198647E+002, -2.343201E+002,  0.000000E+000,  4.379171E+001,  1.916345E+000, -5.019377E-001,  5.104314E-001
  2.184581E+002, -2.312425E+002,  0.000000E+000,  5.567917E+001,  1.539736E+000, -1.933550E-001,  5.101802E-001
  2.154053E+002, -2.269571E+002,  0.000000E+000,  6.650900E+001,  1.247981E+000, -2.011897E-002,  5.109105E-001
  2.112970E+002, -2.217050E+002,  0.000000E+000,  7.551497E+001,  9.087893E-001,  5.687958E-001,  5.103905E-001
  2.063763E+002, -2.151415E+002,  0.000000E+000,  8.316315E+001,  4.933273E-001,  1.004234E+000,  5.107602E-001
  2.001976E+002, -2.071093E+002,  0.000000E+000,  9.046897E+001,  3.424678E-001,  1.273793E+000,  5.108650E-001
  1.930371E+002, -1.988581E+002,  0.000000E+000,  9.725408E+001,  1.114164E-001,  1.226043E+000,  5.100044E-001
  1.854413E+002, -1.904279E+002,  0.000000E+000,  1.034014E+002,  1.305210E-001,  1.219162E+000,  5.101773E-001
  1.880705E+002, -1.644633E+002,  0.000000E+000, -1.026432E+002,  1.931756E-001,  2.457277E-003,  5.100131E-001
  1.936734E+002, -1.722950E+002,  0.000000E+000, -9.718092E+001,  2.427405E-001, -3.062866E-001,  5.100598E-001
  1.994617E+002, -1.803912E+002,  0.000000E+000, -9.059462E+001,  9.814174E-002, -5.025052E-001,  5.107099E-001
  2.050082E+002, -1.882130E+002,  0.000000E+000, -8.275474E+001, -7.538160E-002, -6.875807E-001,  5.104187E-001
  2.098067E+002, -1.953258E+002,  0.000000E+000, -7.411783E+001, -4.266225E-001, -8.259660E-001,  5.100215E-001
  2.145890E+002, -2.024722E+002,  0.000000E+000, -6.315682E+001, -7.830118E-001, -1.096724E+000,  5.108863E-001
  2.194300E+002, -2.092814E+002,  0.000000E+000, -4.993180E+001, -8.770716E-001, -1.411208E+000,  5.101722E-001
  2.237935E+002, -2.146999E+002,  0.000000E+000, -3.543291E+001, -3.759173E-001, -1.680166E+000,  5.106597E-001
  2.274399E+002, -2.184272E+002,  0.000000E+000, -1.945933E+001,  4.211702E-001, -1.669151E+000,  5.105505E-001
  2.306907E+002, -2.211403E+002,  0.000000E+000, -2.041520E+000,  1.155610E+000, -1.665546E+000,  5.107771E-001
  2.329656E+002, -2.222391E+002,  0.000000E+000,  1.552935E+001,  1.730431E+000, -1.614633E+000,  5.100109E-001
  2.334731E+002, -2.216043E+002,  0.000000E+000,  3.169583E+001,  2.089103E+000, -1.761578E+000,  5.108835E-001
  2.326148E+002, -2.198590E+002,  0.000000E+000,  4.599965E+001,  1.880178E+000, -1.482504E+000,  5.101943E-001
  2.304351E+002, -2.168680E+002,  0.000000E+000,  5.831330E+001,  1.179300E+000, -1.329727E+000,  5.105561E-001
  2.265582E+002, -2.124827E+002,  0.000000E+000,  6.933448E+001,  4.569212E-001, -1.020958E+000,  5.102020E-001
  2.215509E+002, -2.066941E+002,  0.000000E+000,  7.842622E+001,  1.088629E-001, -6.293105E-001,  5.109294E-001
  2.155891E+002, -1.991670E+002,  0.000000E+000,  8.643578E+001, -5.048603E-002, -2.351073E-001,  5.108137E-001
  2.086440E+002, -1.906447E+002,  0.000000E+000,  9.390797E+001,  6.102814E-002,  4.815311E-002,  5.101711E-001
  2.007774E+002, -1.819472E+002,  0.000000E+000,  1.005807E+002,  6.417330E-002,  1.814643E-001,  5.109134E-001
  1.923173E+002, -1.731386E+002,  0.000000E+000,  1.068125E+002,  2.025109E-001,  2.081829E-001,  5.107455E-001
  1.959446E+002, -1.446802E+002,  0.000000E+000, -1.058167E+002,  9.060603E-001, -6.401090E-001,  5.107568E-001
  2.023592E+002, -1.522653E+002,  0.000000E+000, -1.004036E+002,  1.055108E+000, -9.903991E-001,  5.102975E-001
  2.088182E+002, -1.598538E+002,  0.000000E+000, -9.414286E+001,  1.090357E+000, -1.325340E+000,  5.105881E-001
  2.150962E+002, -1.682376E+002,  0.000000E+000, -8.640871E+001,  9.275611E-001, -1.533840E+000,  5.102127E-001
  2.208900E+002, -1.758753E+002,  0.000000E+000, -7.750181E+001,  5.618893E-001, -1.659867E+000,  5.105194E-001
  2.268484E+002, -1.823025E+002,  0.000000E+000, -6.676870E+001, -4.645889E-002, -1.768953E+000,  5.102541E-001
  2.328012E+002, -1.890054E+002,  0.000000E+000, -5.310436E+001, -4.022835E-001, -2.111862E+000,  5.104627E-001
  2.381143E+002, -1.946452E+002,  0.000000E+000, -3.775209E+001, -7.536268E-002, -2.496868E+000,  5.102526E-001
  2.423288E+002, -1.985772E+002,  0.000000E+000, -2.096345E+001,  7.302276E-001, -2.586773E+000,  5.103430E-001
  2.457940E+002, -2.012572E+002,  0.000000E+000, -2.397383E+000,  1.440640E+000, -2.632697E+000,  5.102202E-001
  2.480244E+002, -2.025895E+002,  0.000000E+000,  1.618821E+001,  1.954440E+000, -2.670584E+000,  5.100701E-001
  2.480698E+002, -2.023325E+002,  0.000000E+000,  3.314176E+001,  1.965208E+000, -2.660365E+000,  5.105595E-001
  2.464892E+002, -2.007626E+002,  0.000000E+000,  4.795557E+001,  1.529690E+000, -2.338710E+000,  5.109245E-001
  2.435946E+002, -1.978513E+002,  0.000000E+000,  6.067758E+001,  5.403788E-001, -2.146064E+000,  5.103359E-001
  2.387601E+002, -1.931981E+002,  0.000000E+000,  7.201161E+001, -4.170267E-001, -1.953166E+000,  5.101427E-001
  2.326349E+002, -1.866624E+002,  0.000000E+000,  8.141471E+001, -6.517373E-001, -1.727624E+000,  5.107398E-001
  2.256284E+002, -1.788814E+002,  0.000000E+000,  8.967861E+001, -5.414318E-001, -1.370687E+000,  5.102591E-001
  2.175926E+002, -1.706237E+002,  0.000000E+000,  9.723553E+001, -1.401730E-001, -9.712897E-001,  5.105046E-001
  2.087409E+002, -1.619011E+002,  0.000000E+000,  1.039903E+002,  5.040642E-002, -8.005573E-001,  5.102943E-001
  1.993133E+002, -1.532593E+002,  0.000000E+000,  1.101957E+002,  4.662979E-001, -7.775911E-001,  5.103575E-001
  2.035322E+002, -1.214433E+002,  0.000000E+000, -1.087194E+002,  1.885512E+000, -1.057773E+000,  5.103369E-001
  2.108018E+002, -1.292252E+002,  0.000000E+000, -1.034984E+002,  2.020691E+000, -1.510175E+000,  5.108178E-001
  2.180111E+002, -1.369090E+002,  0.000000E+000, -9.723175E+001,  2.087999E+000, -1.955793E+000,  5.108369E-001
  2.251414E+002, -1.438483E+002,  0.000000E+000, -8.969112E+001,  1.886320E+000, -2.104133E+000,  5.107901E-001
  2.320950E+002, -1.511923E+002,  0.000000E+000, -8.061847E+001,  1.509197E+000, -2.160134E+000,  5.108087E-001
  2.390795E+002, -1.576004E+002,  0.000000E+000, -6.964287E+001,  9.145850E-001, -2.227971E+000,  5.101137E-001
  2.461580E+002, -1.631529E+002,  0.000000E+000, -5.595969E+001,  2.805568E-001, -2.639439E+000,  5.100088E-001
  2.528650E+002, -1.681927E+002,  0.000000E+000, -3.994881E+001,  4.832559E-001, -3.121214E+000,  5.107746E-001
  2.580371E+002, -1.718924E+002,  0.000000E+000, -2.241534E+001,  1.075311E+000, -3.326305E+000,  5.105242E-001
  2.617211E+002, -1.741186E+002,  0.000000E+000, -2.754887E+000,  1.500977E+000, -3.525728E+000,  5.105781E-001
  2.637558E+002, -1.749926E+002,  0.000000E+000,  1.657825E+001,  1.887771E+000, -3.608561E+000,  5.100166E-001
  2.630892E+002, -1.746543E+002,  0.000000E+000,  3.401488E+001,  1.582126E+000, -3.151719E+000,  5.102237E-001
  2.607967E+002, -1.733206E+002,  0.000000E+000,  4.940571E+001,  8.496498E-001, -2.808141E+000,  5.100963E-001
  2.573465E+002, -1.702185E+002,  0.000000E+000,  6.250177E+001, -1.994050E-001, -2.613816E+000,  5.105696E-001
  2.512717E+002, -1.656469E+002,  0.000000E+000,  7.391713E+001, -1.074465E+000, -2.633793E+000,  5.104416E-001
  2.440068E+002, -1.601532E+002,  0.000000E+000,  8.364201E+001, -1.267860E+000, -2.455725E+000,  5.100598E-001
  2.356647E+002, -1.531026E+002,  0.000000E+000,  9.233512E+001, -8.102079E-001, -2.092141E+000,  5.100075E-001
  2.265269E+002, -1.455509E+002,  0.000000E+000,  9.987566E+001, -1.379749E-001, -1.648407E+000,  5.105652E-001
  2.168131E+002, -1.377755E+002,  0.000000E+000,  1.067828E+002,  4.845270E-001, -1.441719E+000,  5.101251E-001
  2.065222E+002, -1.304394E+002,  0.000000E+000,  1.130945E+002,  9.602614E-001, -1.454836E+000,  5.103673E-001
  2.107448E+002, -9.482993E+001,  0.000000E+000, -1.114020E+002,  2.668589E+000, -1.332227E+000,  5.104680E-001
  2.186070E+002, -1.020393E+002,  0.000000E+000, -1.060775E+002,  2.880795E+000, -1.763719E+000,  5.101646E-001
  2.266364E+002, -1.090207E+002,  0.000000E+000, -9.963065E+001,  3.027388E+000, -2.204712E+000,  5.105049E-001
  2.343517E+002, -1.154680E+002,  0.000000E+000, -9.202887E+001,  2.778717E+000, -2.476413E+000,  5.105489E-001
  2.422371E+002, -1.213442E+002,  0.000000E+000, -8.286154E+001,  2.360590E+000, -2.599741E+000,  5.101446E-001
  2.504080E+002, -1.265830E+002,  0.000000E+000, -7.161554E+001,  1.842867E+000, -2.688274E+000,  5.106750E-001
  2.582742E+002, -1.313368E+002,  0.000000E+000, -5.788988E+001,  1.189058E+000, -3.129925E+000,  5.103197E-001
  2.656339E+002, -1.353384E+002,  0.000000E+000, -4.151448E+001,  9.894202E-001, -3.724697E+000,  5.105168E-001
  2.715615E+002, -1.383870E+002,  0.000000E+000, -2.344837E+001,  1.117620E+000, -3.906925E+000,  5.107060E-001
  2.757957E+002, -1.394884E+002,  0.000000E+000, -2.969336E+000,  1.187197E+000, -3.917564E+000,  5.100346E-001
  2.776409E+002, -1.398608E+002,  0.000000E+000,  1.666661E+001,  1.159636E+000, -3.784520E+000,  5.105461E-001
  2.765032E+002, -1.397907E+002,  0.000000E+000,  3.432312E+001,  5.944525E-001, -3.182190E+000,  5.104546E-001
  2.737886E+002, -1.385802E+002,  0.000000E+000,  5.022921E+001, -9.507214E-002, -2.689439E+000,  5.100987E-001
  2.692269E+002, -1.360311E+002,  0.000000E+000,  6.341575E+001, -8.985003E-001, -2.429874E+000,  5.102828E-001
  2.624758E+002, -1.327445E+002,  0.000000E+000,  7.487251E+001, -1.398430E+000, -2.482847E+000,  5.104792E-001
  2.541003E+002, -1.283801E+002,  0.000000E+000,  8.490131E+001, -1.411678E+000, -2.514960E+000,  5.106570E-001
  2.443814E+002, -1.230542E+002,  0.000000E+000,  9.383904E+001, -7.351329E-001, -2.381530E+000,  5.105409E-001
  2.343831E+002, -1.171596E+002,  0.000000E+000,  1.017179E+002, -1.918670E-002, -1.967578E+000,  5.104567E-001
  2.239877E+002, -1.109183E+002,  0.000000E+000,  1.088758E+002,  7.019577E-001, -1.792207E+000,  5.106643E-001
  2.131793E+002, -1.046915E+002,  0.000000E+000,  1.153941E+002,  1.211001E+000, -1.884482E+000,  5.101284E-001
  2.172489E+002, -6.542555E+001,  0.000000E+000, -1.134024E+002,  3.246480E+000, -1.450978E+000,  5.107209E-001
  2.256187E+002, -7.110943E+001,  0.000000E+000, -1.077800E+002,  3.513138E+000, -1.759075E+000,  5.101713E-001
  2.340534E+002, -7.673949E+001,  0.000000E+000, -1.011470E+002,  3.766482E+000, -2.130006E+000,  5.106346E-001
  2.422178E+002, -8.224427E+001,  0.000000E+000, -9.334172E+001,  3.708364E+000, -2.327461E+000,  5.106600E-001
  2.501560E+002, -8.735306E+001,  0.000000E+000, -8.400214E+001,  3.143487E+000, -2.351646E+000,  5.103914E-001
  2.584453E+002, -9.185398E+001,  0.000000E+000, -7.256764E+001,  2.602533E+000, -2.507847E+000,  5.105685E-001
  2.672463E+002, -9.496653E+001,  0.000000E+000, -5.866617E+001,  1.914700E+000, -3.061854E+000,  5.104709E-001
  2.753102E+002, -9.707042E+001,  0.000000E+000, -4.215285E+001,  1.349870E+000, -3.616784E+000,  5.103701E-001
  2.818748E+002, -9.886144E+001,  0.000000E+000, -2.388795E+001,  1.082837E+000, -3.708908E+000,  5.103475E-001
  2.866112E+002, -1.001121E+002,  0.000000E+000, -3.272163E+000,  7.258508E-001, -3.707840E+000,  5.102703E-001
  2.878691E+002, -1.009839E+002,  0.000000E+000,  1.631469E+001,  4.174715E-001, -3.329135E+000,  5.100493E-001
  2.864924E+002, -1.015860E+002,  0.000000E+000,  3.422149E+001, -4.282659E-001, -2.904161E+000,  5.105424E-001
  2.827280E+002, -1.008580E+002,  0.000000E+000,  5.009009E+001, -1.305978E+000, -2.432216E+000,  5.102022E-001
  2.774525E+002, -9.926299E+001,  0.000000E+000,  6.339728E+001, -1.758426E+000, -2.079209E+000,  5.107183E-001
  2.705818E+002, -9.670103E+001,  0.000000E+000,  7.468655E+001, -1.844767E+000, -2.041739E+000,  5.105099E-001
  2.613052E+002, -9.323803E+001,  0.000000E+000,  8.489117E+001, -1.447533E+000, -2.151036E+000,  5.102703E-001
  2.513120E+002, -8.966190E+001,  0.000000E+000,  9.399644E+001, -7.019547E-001, -2.038660E+000,  5.106631E-001
  2.406773E+002, -8.547857E+001,  0.000000E+000,  1.024705E+002, -6.683106E-002, -1.827684E+000,  5.104893E-001
  2.298048E+002, -8.080341E+001,  0.000000E+000,  1.100580E+002,  4.992283E-001, -1.905954E+000,  5.100797E-001
  2.187969E+002, -7.616813E+001,  0.000000E+000,  1.167657E+002,  1.039750E+000, -2.036781E+000,  5.103839E-001
  2.222498E+002, -3.462572E+001,  0.000000E+000, -1.146909E+002,  3.432089E+000, -1.511562E+000,  5.102214E-001
  2.308508E+002, -3.923474E+001,  0.000000E+000, -1.089375E+002,  3.905392E+000, -1.710969E+000,  5.107686E-001
  2.394683E+002, -4.383782E+001,  0.000000E+000, -1.021846E+002,  4.186199E+000, -1.889616E+000,  5.102818E-001
  2.479019E+002, -4.829375E+001,  0.000000E+000, -9.424776E+001,  4.170887E+000, -1.789326E+000,  5.101494E-001
  2.560458E+002, -5.241169E+001,  0.000000E+000, -8.485770E+001,  3.684277E+000, -1.651280E+000,  5.105390E-001
  2.647729E+002, -5.575615E+001,  0.000000E+000, -7.296721E+001,  3.117770E+000, -1.744171E+000,  5.103241E-001
  2.738268E+002, -5.770590E+001,  0.000000E+000, -5.869271E+001,  2.413662E+000, -2.423860E+000,  5.102355E-001
  2.821904E+002, -5.870402E+001,  0.000000E+000, -4.214133E+001,  1.696983E+000, -2.932463E+000,  5.104797E-001
  2.894363E+002, -5.902502E+001,  0.000000E+000, -2.383090E+001,  1.293884E+000, -3.288431E+000,  5.105376E-001
  2.941106E+002, -5.935071E+001,  0.000000E+000, -3.616172E+000,  6.568817E-001, -3.197464E+000,  5.102300E-001
  2.951462E+002, -6.052582E+001,  0.000000E+000,  1.545583E+001, -2.967086E-003, -2.754267E+000,  5.103683E-001
  2.932926E+002, -6.196030E+001,  0.000000E+000,  3.334735E+001, -9.132244E-001, -2.262830E+000,  5.106400E-001
  2.886960E+002, -6.276496E+001,  0.000000E+000,  4.935095E+001, -1.868582E+000, -1.807298E+000,  5.106123E-001
  2.829336E+002, -6.190969E+001,  0.000000E+000,  6.283540E+001, -2.165585E+000, -1.401729E+000,  5.103363E-001
  2.756963E+002, -5.989897E+001,  0.000000E+000,  7.419980E+001, -2.192262E+000, -1.340037E+000,  5.105316E-001
  2.665659E+002, -5.731627E+001,  0.000000E+000,  8.440433E+001, -1.692589E+000, -1.426092E+000,  5.106913E-001
  2.564264E+002, -5.458987E+001,  0.000000E+000,  9.362093E+001, -1.000089E+000, -1.490579E+000,  5.103098E-001
  2.452510E+002, -5.167020E+001,  0.000000E+000,  1.024134E+002, -2.921120E-001, -1.452969E+000,  5.101999E-001
  2.341567E+002, -4.864494E+001,  0.000000E+000,  1.101899E+002,  2.158595E-001, -1.571584E+000,  5.103057E-001
  2.231597E+002, -4.549007E+001,  0.000000E+000,  1.171578E+002,  6.595235E-001, -1.808621E+000,  5.100376E-001
  2.256402E+002, -4.445166E+000,  0.000000E+000, -1.156705E+002,  3.245996E+000, -1.629774E+000,  5.100892E-001
  2.343900E+002, -7.760742E+000,  0.000000E+000, -1.098662E+002,  3.830307E+000, -1.767496E+000,  5.100849E-001
  2.433160E+002, -1.117433E+001,  0.000000E+000, -1.030907E+002,  4.217879E+000, -1.755191E+000,  5.100368E-001
  2.519421E+002, -1.462995E+001,  0.000000E+000, -9.503051E+001,  4.275488E+000, -1.445933E+000,  5.101399E-001
  2.605566E+002, -1.768578E+001,  0.000000E+000, -8.551909E+001,  3.946471E+000, -1.231771E+000,  5.105418E-001
  2.694054E+002, -1.988004E+001,  0.000000E+000, -7.328908E+001,  3.425400E+000, -1.415259E+000,  5.101141E-001
  2.784711E+002, -2.126185E+001,  0.000000E+000, -5.862227E+001,  2.648071E+000, -2.005889E+000,  5.100039E-001
  2.869724E+002, -2.150953E+001,  0.000000E+000, -4.170280E+001,  1.900179E+000, -2.518274E+000,  5.106285E-001
  2.939964E+002, -2.079938E+001,  0.000000E+000, -2.340092E+001,  1.285964E+000, -2.800227E+000,  5.105506E-001
  2.985738E+002, -2.049468E+001,  0.000000E+000, -3.935214E+000,  5.273006E-001, -2.869452E+000,  5.107144E-001
  2.995812E+002, -2.158283E+001,  0.000000E+000,  1.445056E+001, -4.114016E-001, -2.358347E+000,  5.100456E-001
  2.976698E+002, -2.347835E+001,  0.000000E+000,  3.201225E+001, -1.471107E+000, -1.749217E+000,  5.105955E-001
  2.929329E+002, -2.502591E+001,  0.000000E+000,  4.829935E+001, -2.179338E+000, -1.108958E+000,  5.106841E-001
  2.865725E+002, -2.514425E+001,  0.000000E+000,  6.208696E+001, -2.509032E+000, -8.359569E-001,  5.101309E-001
  2.790772E+002, -2.388473E+001,  0.000000E+000,  7.375437E+001, -2.395781E+000, -8.889418E-001,  5.107124E-001
  2.701271E+002, -2.200259E+001,  0.000000E+000,  8.397125E+001, -1.903223E+000, -9.546530E-001,  5.102287E-001
  2.599859E+002, -2.006211E+001,  0.000000E+000,  9.335118E+001, -1.058587E+000, -1.178468E+000,  5.102874E-001
  2.488349E+002, -1.831961E+001,  0.000000E+000,  1.021755E+002, -3.134054E-001, -1.219568E+000,  5.103840E-001
  2.374371E+002, -1.659899E+001,  0.000000E+000,  1.100747E+002,  1.672404E-001, -1.390890E+000,  5.103766E-001
  2.261589E+002, -1.472410E+001,  0.000000E+000,  1.172188E+002,  5.697058E-001, -1.644266E+000,  5.106125E-001
  2.283533E+002,  2.496653E+001,  0.000000E+000, -1.164840E+002,  2.959760E+000, -1.601558E+000,  5.102842E-001
  2.370681E+002,  2.310755E+001,  0.000000E+000, -1.107853E+002,  3.570702E+000, -1.728918E+000,  5.107886E-001
  2.461346E+002,  2.099191E+001,  0.000000E+000, -1.039549E+002,  4.024973E+000, -1.657787E+000,  5.103646E-001
  2.547487E+002,  1.873084E+001,  0.000000E+000, -9.589158E+001,  4.161989E+000, -1.337915E+000,  5.103148E-001
  2.638846E+002,  1.661045E+001,  0.000000E+000, -8.600103E+001,  4.102866E+000, -1.223471E+000,  5.105697E-001
  2.729800E+002,  1.567834E+001,  0.000000E+000, -7.346364E+001,  3.524728E+000, -1.492201E+000,  5.104292E-001
  2.821389E+002,  1.535444E+001,  0.000000E+000, -5.869052E+001,  2.668061E+000, -1.964451E+000,  5.100003E-001
  2.903844E+002,  1.545044E+001,  0.000000E+000, -4.145166E+001,  1.962696E+000, -2.336668E+000,  5.103802E-001
  2.968252E+002,  1.619277E+001,  0.000000E+000, -2.285371E+001,  1.156862E+000, -2.392488E+000,  5.101608E-001
  3.010112E+002,  1.672930E+001,  0.000000E+000, -4.180836E+000,  3.245239E-001, -2.411310E+000,  5.101030E-001
  3.020997E+002,  1.584263E+001,  0.000000E+000,  1.340660E+001, -7.335620E-001, -1.831569E+000,  5.102074E-001
  3.003103E+002,  1.429197E+001,  0.000000E+000,  3.061409E+001, -1.726474E+000, -1.166116E+000,  5.101299E-001
  2.957925E+002,  1.243330E+001,  0.000000E+000,  4.699537E+001, -2.379494E+000, -8.666807E-001,  5.103152E-001
  2.891619E+002,  1.145554E+001,  0.000000E+000,  6.128452E+001, -2.681273E+000, -6.844393E-001,  5.103674E-001
  2.813943E+002,  1.173306E+001,  0.000000E+000,  7.342380E+001, -2.677210E+000, -7.412779E-001,  5.100991E-001
  2.724941E+002,  1.265261E+001,  0.000000E+000,  8.375945E+001, -2.016262E+000, -6.822286E-001,  5.105576E-001
  2.623455E+002,  1.358951E+001,  0.000000E+000,  9.319350E+001, -1.034683E+000, -8.582989E-001,  5.100849E-001
  2.513862E+002,  1.440727E+001,  0.000000E+000,  1.020023E+002, -2.578978E-001, -1.019577E+000,  5.102652E-001
  2.397903E+002,  1.502079E+001,  0.000000E+000,  1.099978E+002,  1.578081E-001, -1.262931E+000,  5.101068E-001
  2.284855E+002,  1.559798E+001,  0.000000E+000,  1.171830E+002,  5.543900E-001, -1.524087E+000,  5.105419E-001
  2.302317E+002,  5.336920E+001,  0.000000E+000, -1.171334E+002,  2.703820E+000, -1.614995E+000,  5.102865E-001
  2.390517E+002,  5.295302E+001,  0.000000E+000, -1.114672E+002,  3.195178E+000, -1.693411E+000,  5.102254E-001
  2.481762E+002,  5.249735E+001,  0.000000E+000, -1.046824E+002,  3.617188E+000, -1.567468E+000,  5.105585E-001
  2.571287E+002,  5.183127E+001,  0.000000E+000, -9.674148E+001,  3.909492E+000, -1.306121E+000,  5.105030E-001
  2.664545E+002,  5.130192E+001,  0.000000E+000, -8.660675E+001,  3.983262E+000, -1.355826E+000,  5.104550E-001
  2.758885E+002,  5.134550E+001,  0.000000E+000, -7.369274E+001,  3.584062E+000, -1.720691E+000,  5.100309E-001
  2.849373E+002,  5.177679E+001,  0.000000E+000, -5.864980E+001,  2.733063E+000, -2.018507E+000,  5.105469E-001
  2.929393E+002,  5.292765E+001,  0.000000E+000, -4.113862E+001,  1.891556E+000, -2.192711E+000,  5.100937E-001
  2.985353E+002,  5.361469E+001,  0.000000E+000, -2.273453E+001,  1.013225E+000, -2.059425E+000,  5.106269E-001
  3.022209E+002,  5.388612E+001,  0.000000E+000, -4.386947E+000,  1.834468E-001, -1.927288E+000,  5.103438E-001
  3.033014E+002,  5.336937E+001,  0.000000E+000,  1.255886E+001, -9.708725E-001, -1.196581E+000,  5.100881E-001
  3.015241E+002,  5.164892E+001,  0.000000E+000,  2.927794E+001, -2.021642E+000, -7.986633E-001,  5.102350E-001
  2.974635E+002,  4.978167E+001,  0.000000E+000,  4.573524E+001, -2.614535E+000, -6.734663E-001,  5.101559E-001
  2.908905E+002,  4.816701E+001,  0.000000E+000,  6.056607E+001, -2.816380E+000, -7.681713E-001,  5.100174E-001
  2.832021E+002,  4.740913E+001,  0.000000E+000,  7.313294E+001, -2.758595E+000, -7.331384E-001,  5.100542E-001
  2.742183E+002,  4.715161E+001,  0.000000E+000,  8.365984E+001, -1.949613E+000, -5.443206E-001,  5.104145E-001
  2.640939E+002,  4.693973E+001,  0.000000E+000,  9.315547E+001, -9.078336E-001, -6.260832E-001,  5.100008E-001
  2.529576E+002,  4.659290E+001,  0.000000E+000,  1.020018E+002, -2.731259E-001, -7.907686E-001,  5.102283E-001
  2.415641E+002,  4.606605E+001,  0.000000E+000,  1.099229E+002,  1.138116E-001, -1.022396E+000,  5.101927E-001
  2.302601E+002,  4.507967E+001,  0.000000E+000,  1.169720E+002,  5.170636E-001, -1.249094E+000,  5.105463E-001
  2.315391E+002,  8.033269E+001,  0.000000E+000, -1.174377E+002,  2.432310E+000, -1.629134E+000,  5.104650E-001
  2.407373E+002,  8.177526E+001,  0.000000E+000, -1.118322E+002,  2.888325E+000, -1.684364E+000,  5.108146E-001
  2.499003E+002,  8.330121E+001,  0.000000E+000, -1.051489E+002,  3.249634E+000, -1.510976E+000,  5.106799E-001
  2.590866E+002,  8.446437E+001,  0.000000E+000, -9.724487E+001,  3.540878E+000, -1.264934E+000,  5.105628E-001
  2.685651E+002,  8.580197E+001,  0.000000E+000, -8.693749E+001,  3.619288E+000, -1.517674E+000,  5.100536E-001
  2.782257E+002,  8.720549E+001,  0.000000E+000, -7.390366E+001,  3.371544E+000, -1.903600E+000,  5.100108E-001
  2.870957E+002,  8.899207E+001,  0.000000E+000, -5.840432E+001,  2.523084E+000, -2.091158E+000,  5.104040E-001
  2.942728E+002,  9.091156E+001,  0.000000E+000, -4.078621E+001,  1.600765E+000, -2.001142E+000,  5.105535E-001
  2.992495E+002,  9.213170E+001,  0.000000E+000, -2.255307E+001,  7.414447E-001, -1.892834E+000,  5.101441E-001
  3.024782E+002,  9.254189E+001,  0.000000E+000, -4.747916E+000, -2.713313E-001, -1.460834E+000,  5.105519E-001
  3.030744E+002,  9.159055E+001,  0.000000E+000,  1.166396E+001, -1.339381E+000, -8.402563E-001,  5.105133E-001
  3.016724E+002,  9.013177E+001,  0.000000E+000,  2.797770E+001, -1.973659E+000, -5.980155E-001,  5.105637E-001
  2.978093E+002,  8.779706E+001,  0.000000E+000,  4.452332E+001, -2.360493E+000, -5.573112E-001,  5.103735E-001
  2.918211E+002,  8.526863E+001,  0.000000E+000,  5.961382E+001, -2.422699E+000, -7.369159E-001,  5.103798E-001
  2.842969E+002,  8.310498E+001,  0.000000E+000,  7.264255E+001, -2.355298E+000, -7.350153E-001,  5.107756E-001
  2.754177E+002,  8.152074E+001,  0.000000E+000,  8.356535E+001, -1.736007E+000, -4.874826E-001,  5.100789E-001
  2.651717E+002,  7.989036E+001,  0.000000E+000,  9.309500E+001, -8.168700E-001, -4.626811E-001,  5.103040E-001
  2.538872E+002,  7.783237E+001,  0.000000E+000,  1.018627E+002, -2.177940E-001, -6.175742E-001,  5.107097E-001
  2.426236E+002,  7.572639E+001,  0.000000E+000,  1.096387E+002,  1.346800E-001, -8.296710E-001,  5.101569E-001
  2.315279E+002,  7.341833E+001,  0.000000E+000,  1.165213E+002,  4.881130E-001, -1.012996E+000,  5.100376E-001
  2.326883E+002,  1.059153E+002,  0.000000E+000, -1.173111E+002,  2.017683E+000, -1.585078E+000,  5.106463E-001
  2.421119E+002,  1.092050E+002,  0.000000E+000, -1.116686E+002,  2.425205E+000, -1.590381E+000,  5.105611E-001
  2.513462E+002,  1.125712E+002,  0.000000E+000, -1.049911E+002,  2.808931E+000, -1.480787E+000,  5.101290E-001
  2.605382E+002,  1.159488E+002,  0.000000E+000, -9.706282E+001,  3.105319E+000, -1.387499E+000,  5.102364E-001
  2.700650E+002,  1.197042E+002,  0.000000E+000, -8.671711E+001,  3.082538E+000, -1.735703E+000,  5.107565E-001
  2.795130E+002,  1.233262E+002,  0.000000E+000, -7.345863E+001,  2.789233E+000, -2.113487E+000,  5.100374E-001
  2.881201E+002,  1.267730E+002,  0.000000E+000, -5.756282E+001,  2.222157E+000, -2.059913E+000,  5.105650E-001
  2.944764E+002,  1.292513E+002,  0.000000E+000, -4.013578E+001,  1.419293E+000, -1.967212E+000,  5.105709E-001
  2.991341E+002,  1.311781E+002,  0.000000E+000, -2.221679E+001,  6.088566E-001, -1.804473E+000,  5.106235E-001
  3.015906E+002,  1.316221E+002,  0.000000E+000, -5.138391E+000, -4.220303E-001, -9.970859E-001,  5.101888E-001
  3.018008E+002,  1.308345E+002,  0.000000E+000,  1.086636E+001, -1.275205E+000, -4.337751E-001,  5.102272E-001
  3.004445E+002,  1.293083E+002,  0.000000E+000,  2.685213E+001, -1.551999E+000, -3.574838E-001,  5.106904E-001
  2.972762E+002,  1.268617E+002,  0.000000E+000,  4.277519E+001, -1.767622E+000, -5.450069E-001,  5.107823E-001
  2.916566E+002,  1.230805E+002,  0.000000E+000,  5.795193E+001, -1.882477E+000, -7.250080E-001,  5.103762E-001
  2.843254E+002,  1.192130E+002,  0.000000E+000,  7.163435E+001, -1.731280E+000, -8.227892E-001,  5.101224E-001
  2.755540E+002,  1.153219E+002,  0.000000E+000,  8.303647E+001, -1.324243E+000, -4.636605E-001,  5.106184E-001
  2.656490E+002,  1.118821E+002,  0.000000E+000,  9.263579E+001, -6.445447E-001, -3.506619E-001,  5.100973E-001
  2.545381E+002,  1.078931E+002,  0.000000E+000,  1.013500E+002, -1.648894E-001, -4.631604E-001,  5.102597E-001
  2.433035E+002,  1.039637E+002,  0.000000E+000,  1.090127E+002,  6.171211E-002, -6.737212E-001,  5.104007E-001
  2.321164E+002,  1.002236E+002,  0.000000E+000,  1.158940E+002,  3.554955E-001, -9.321527E-001,  5.106708E-001
  2.337957E+002,  1.299672E+002,  0.000000E+000, -1.167321E+002,  1.553182E+000, -1.494201E+000,  5.105237E-001
  2.432298E+002,  1.350692E+002,  0.000000E+000, -1.109481E+002,  1.901861E+000, -1.501564E+000,  5.104144E-001
  2.525465E+002,  1.405158E+002,  0.000000E+000, -1.041022E+002,  2.249734E+000, -1.549384E+000,  5.105825E-001
  2.614817E+002,  1.461876E+002,  0.000000E+000, -9.569310E+001,  2.410786E+000, -1.720070E+000,  5.103947E-001
  2.706025E+002,  1.523861E+002,  0.000000E+000, -8.511975E+001,  2.361068E+000, -1.990101E+000,  5.106132E-001
  2.795631E+002,  1.585238E+002,  0.000000E+000, -7.183527E+001,  2.162604E+000, -2.122132E+000,  5.100149E-001
  2.877620E+002,  1.641436E+002,  0.000000E+000, -5.619485E+001,  1.803415E+000, -1.998057E+000,  5.105373E-001
  2.938568E+002,  1.675325E+002,  0.000000E+000, -3.915722E+001,  1.289150E+000, -1.898208E+000,  5.101861E-001
  2.980836E+002,  1.695593E+002,  0.000000E+000, -2.186208E+001,  6.629582E-001, -1.581901E+000,  5.102450E-001
  2.998709E+002,  1.698956E+002,  0.000000E+000, -5.381707E+000, -2.527614E-001, -6.203678E-001,  5.101187E-001
  2.998135E+002,  1.690973E+002,  0.000000E+000,  1.018893E+001, -9.746729E-001, -2.059201E-001,  5.104817E-001
  2.985732E+002,  1.675093E+002,  0.000000E+000,  2.571432E+001, -1.250783E+000, -1.314656E-001,  5.103394E-001
  2.954905E+002,  1.647315E+002,  0.000000E+000,  4.114388E+001, -1.335267E+000, -3.855234E-001,  5.100718E-001
  2.904860E+002,  1.606538E+002,  0.000000E+000,  5.589566E+001, -1.473492E+000, -6.673117E-001,  5.100904E-001
  2.836833E+002,  1.549943E+002,  0.000000E+000,  6.955841E+001, -1.220360E+000, -7.536935E-001,  5.103376E-001
  2.749776E+002,  1.487067E+002,  0.000000E+000,  8.133861E+001, -8.601241E-001, -5.781134E-001,  5.101589E-001
  2.655114E+002,  1.426975E+002,  0.000000E+000,  9.138404E+001, -5.168239E-001, -3.959060E-001,  5.107346E-001
  2.548137E+002,  1.369565E+002,  0.000000E+000,  1.002718E+002, -1.717322E-001, -4.959152E-001,  5.104227E-001
  2.437180E+002,  1.312457E+002,  0.000000E+000,  1.080071E+002, -3.582953E-002, -6.326932E-001,  5.107158E-001
  2.323913E+002,  1.259041E+002,  0.000000E+000,  1.150196E+002,  1.290725E-001, -9.124559E-001,  5.106203E-001
  2.347048E+002,  1.521765E+002,  0.000000E+000, -1.152903E+002,  1.083825E+000, -1.406952E+000,  5.106894E-001
  2.441025E+002,  1.591311E+002,  0.000000E+000, -1.092247E+002,  1.318896E+000, -1.433214E+000,  5.106498E-001
  2.532839E+002,  1.665059E+002,  0.000000E+000, -1.020011E+002,  1.525809E+000, -1.665274E+000,  5.105762E-001
  2.617940E+002,  1.745771E+002,  0.000000E+000, -9.297632E+001,  1.748817E+000, -1.800231E+000,  5.101710E-001
  2.702887E+002,  1.831819E+002,  0.000000E+000, -8.208238E+001,  1.752203E+000, -2.107117E+000,  5.100527E-001
  2.786108E+002,  1.917607E+002,  0.000000E+000, -6.881409E+001,  1.415690E+000, -2.096520E+000,  5.105164E-001
  2.864193E+002,  1.993281E+002,  0.000000E+000, -5.407115E+001,  1.125004E+000, -1.842247E+000,  5.103143E-001
  2.923111E+002,  2.044528E+002,  0.000000E+000, -3.813999E+001,  8.266667E-001, -1.722809E+000,  5.106861E-001
  2.961328E+002,  2.066295E+002,  0.000000E+000, -2.149623E+001,  6.196808E-001, -1.218354E+000,  5.102633E-001
  2.974734E+002,  2.067341E+002,  0.000000E+000, -5.583783E+000,  7.822658E-002, -4.380084E-001,  5.103307E-001
  2.973428E+002,  2.057240E+002,  0.000000E+000,  9.599378E+000, -4.902339E-001, -8.071846E-002,  5.102137E-001
  2.962614E+002,  2.040969E+002,  0.000000E+000,  2.454416E+001, -7.566324E-001,  3.704422E-002,  5.103934E-001
  2.933645E+002,  2.007318E+002,  0.000000E+000,  3.950134E+001, -8.317846E-001, -2.538443E-001,  5.105621E-001
  2.888800E+002,  1.958355E+002,  0.000000E+000,  5.346096E+001, -9.237240E-001, -5.077038E-001,  5.106463E-001
  2.826066E+002,  1.887493E+002,  0.000000E+000,  6.664683E+001, -8.640138E-001, -5.123595E-001,  5.101458E-001
  2.741711E+002,  1.804424E+002,  0.000000E+000,  7.866498E+001, -7.019517E-001, -6.135606E-001,  5.101709E-001
  2.648167E+002,  1.723789E+002,  0.000000E+000,  8.901868E+001, -5.315496E-001, -5.677454E-001,  5.102094E-001
  2.545256E+002,  1.644866E+002,  0.000000E+000,  9.833497E+001, -3.737895E-001, -5.196133E-001,  5.102820E-001
  2.436732E+002,  1.572061E+002,  0.000000E+000,  1.064089E+002, -2.099824E-001, -7.934348E-001,  5.104258E-001
  2.323800E+002,  1.501846E+002,  0.000000E+000,  1.136375E+002, -6.364227E-002, -9.995047E-001,  5.106177E-001
  2.353300E+002,  1.722344E+002,  0.000000E+000, -1.129278E+002,  5.847190E-001, -1.366400E+000,  5.103432E-001
  2.444752E+002,  1.804803E+002,  0.000000E+000, -1.063730E+002,  8.064948E-001, -1.395282E+000,  5.101719E-001
  2.533159E+002,  1.897083E+002,  0.000000E+000, -9.828247E+001,  1.120275E+000, -1.639040E+000,  5.106933E-001
  2.615903E+002,  1.996562E+002,  0.000000E+000, -8.882221E+001,  1.235215E+000, -1.949403E+000,  5.104581E-001
  2.695460E+002,  2.103743E+002,  0.000000E+000, -7.766659E+001,  1.045351E+000, -2.063107E+000,  5.102823E-001
  2.773464E+002,  2.210154E+002,  0.000000E+000, -6.484180E+001,  8.420540E-001, -1.874893E+000,  5.104716E-001
  2.844118E+002,  2.305162E+002,  0.000000E+000, -5.109431E+001,  6.504537E-001, -1.655909E+000,  5.105317E-001
  2.899633E+002,  2.377325E+002,  0.000000E+000, -3.643850E+001,  4.753500E-001, -1.445877E+000,  5.105788E-001
  2.934621E+002,  2.416799E+002,  0.000000E+000, -2.106694E+001,  3.130808E-001, -8.398231E-001,  5.105313E-001
  2.946530E+002,  2.417251E+002,  0.000000E+000, -5.877373E+000,  3.228022E-002, -2.495801E-001,  5.100220E-001
  2.945944E+002,  2.405530E+002,  0.000000E+000,  8.958587E+000, -3.068299E-001,  2.644932E-002,  5.106392E-001
  2.935366E+002,  2.384257E+002,  0.000000E+000,  2.332577E+001, -3.248265E-001,  1.741543E-001,  5.105543E-001
  2.908445E+002,  2.339337E+002,  0.000000E+000,  3.738032E+001, -3.131858E-001, -5.301615E-002,  5.101793E-001
  2.866261E+002,  2.274147E+002,  0.000000E+000,  5.071303E+001, -3.130341E-001, -2.358781E-001,  5.104510E-001
  2.808847E+002,  2.191825E+002,  0.000000E+000,  6.309166E+001, -5.092768E-001, -4.300355E-001,  5.100026E-001
  2.730730E+002,  2.094264E+002,  0.000000E+000,  7.513249E+001, -7.825774E-001, -6.256109E-001,  5.100664E-001
  2.639321E+002,  1.994914E+002,  0.000000E+000,  8.586249E+001, -6.628410E-001, -6.820863E-001,  5.106359E-001
  2.538811E+002,  1.900200E+002,  0.000000E+000,  9.546115E+001, -4.878118E-001, -6.064236E-001,  5.101165E-001
  2.431023E+002,  1.811488E+002,  0.000000E+000,  1.040363E+002, -3.655734E-001, -8.222889E-001,  5.106548E-001
  2.320930E+002,  1.728184E+002,  0.000000E+000,  1.114043E+002, -2.040384E-001, -1.111996E+000,  5.102789E-001
  2.353981E+002,  1.908224E+002,  0.000000E+000, -1.098730E+002,  4.302727E-001, -1.371070E+000,  5.103451E-001
  2.443191E+002,  2.001394E+002,  0.000000E+000, -1.023861E+002,  7.558674E-001, -1.470111E+000,  5.103674E-001
  2.528737E+002,  2.103151E+002,  0.000000E+000, -9.377299E+001,  9.392667E-001, -1.721746E+000,  5.104631E-001
  2.611579E+002,  2.214063E+002,  0.000000E+000, -8.375832E+001,  8.913815E-001, -1.870876E+000,  5.103178E-001
  2.687811E+002,  2.332367E+002,  0.000000E+000, -7.243206E+001,  7.484318E-001, -1.765061E+000,  5.103045E-001
  2.759050E+002,  2.447464E+002,  0.000000E+000, -6.018594E+001,  4.923275E-001, -1.575183E+000,  5.101735E-001
  2.822148E+002,  2.553265E+002,  0.000000E+000, -4.727066E+001,  3.172850E-001, -1.255320E+000,  5.105983E-001
  2.873375E+002,  2.646613E+002,  0.000000E+000, -3.365874E+001,  1.607084E-001, -9.360090E-001,  5.103532E-001
  2.903870E+002,  2.710144E+002,  0.000000E+000, -1.979637E+001,  1.043523E-001, -5.230914E-001,  5.100006E-001
  2.915809E+002,  2.736538E+002,  0.000000E+000, -5.988201E+000, -1.500314E-001, -5.184089E-002,  5.106899E-001
  2.915614E+002,  2.727825E+002,  0.000000E+000,  8.190246E+000, -2.617110E-001,  2.716945E-001,  5.105299E-001
  2.904390E+002,  2.688390E+002,  0.000000E+000,  2.156592E+001, -2.397855E-001,  4.235539E-001,  5.105084E-001
  2.879596E+002,  2.624316E+002,  0.000000E+000,  3.459800E+001, -1.281514E-001,  2.153295E-001,  5.105905E-001
  2.839674E+002,  2.541816E+002,  0.000000E+000,  4.722833E+001, -3.683525E-002,  6.014580E-002,  5.103789E-001
  2.786617E+002,  2.449032E+002,  0.000000E+000,  5.918735E+001, -1.927484E-001, -1.467059E-001,  5.103333E-001
  2.715120E+002,  2.345714E+002,  0.000000E+000,  7.089816E+001, -5.623444E-001, -4.776094E-001,  5.103530E-001
  2.629668E+002,  2.238050E+002,  0.000000E+000,  8.200985E+001, -6.392836E-001, -6.601401E-001,  5.103550E-001
  2.529848E+002,  2.131612E+002,  0.000000E+000,  9.203850E+001, -5.019376E-001, -7.511500E-001,  5.101863E-001
  2.421816E+002,  2.030736E+002,  0.000000E+000,  1.010526E+002, -4.423385E-001, -8.366251E-001,  5.100566E-001
  2.314375E+002,  1.936861E+002,  0.000000E+000,  1.086753E+002, -3.194130E-001, -1.117238E+000,  5.106545E-001
  2.345504E+002,  2.074044E+002,  0.000000E+000, -1.059619E+002,  7.556214E-001, -1.553961E+000,  5.107005E-001
  2.438437E+002,  2.172872E+002,  0.000000E+000, -9.795618E+001,  1.045062E+000, -1.660746E+000,  5.107115E-001
  2.523504E+002,  2.280727E+002,  0.000000E+000, -8.875392E+001,  1.078082E+000, -1.772569E+000,  5.100913E-001
  2.605203E+002,  2.398104E+002,  0.000000E+000, -7.830618E+001,  1.018475E+000, -1.700452E+000,  5.101525E-001
  2.680003E+002,  2.517544E+002,  0.000000E+000, -6.716324E+001,  7.891087E-001, -1.567609E+000,  5.103568E-001
  2.744578E+002,  2.631512E+002,  0.000000E+000, -5.543543E+001,  5.163387E-001, -1.195660E+000,  5.105769E-001
  2.802293E+002,  2.740787E+002,  0.000000E+000, -4.306205E+001,  2.537832E-001, -8.396309E-001,  5.105759E-001
  2.847748E+002,  2.836439E+002,  0.000000E+000, -3.019405E+001,  6.146366E-002, -4.532571E-001,  5.105180E-001
  2.873260E+002,  2.903009E+002,  0.000000E+000, -1.754565E+001,  2.786831E-002, -9.354194E-003,  5.102155E-001
  2.882628E+002,  2.933809E+002,  0.000000E+000, -5.240988E+000, -2.077156E-001,  3.585788E-001,  5.100974E-001
  2.882358E+002,  2.933908E+002,  0.000000E+000,  7.231035E+000, -3.793375E-001,  6.541740E-001,  5.100358E-001
  2.872855E+002,  2.904290E+002,  0.000000E+000,  1.919422E+001, -2.529526E-001,  8.372322E-001,  5.107573E-001
  2.849875E+002,  2.840078E+002,  0.000000E+000,  3.134525E+001, -3.499308E-002,  6.994868E-001,  5.106966E-001
  2.813465E+002,  2.756339E+002,  0.000000E+000,  4.339970E+001,  2.419851E-001,  4.875651E-001,  5.104144E-001
  2.762839E+002,  2.660527E+002,  0.000000E+000,  5.511896E+001,  2.198988E-001,  1.640816E-001,  5.107865E-001
  2.695852E+002,  2.557480E+002,  0.000000E+000,  6.657334E+001, -1.876058E-001, -1.596519E-001,  5.103607E-001
  2.614483E+002,  2.449321E+002,  0.000000E+000,  7.780343E+001, -3.750962E-001, -5.146362E-001,  5.106898E-001
  2.517504E+002,  2.338950E+002,  0.000000E+000,  8.822431E+001, -3.799662E-001, -7.488880E-001,  5.104380E-001
  2.411782E+002,  2.229592E+002,  0.000000E+000,  9.753666E+001, -3.953396E-001, -9.924112E-001,  5.105465E-001
  2.305515E+002,  2.126448E+002,  0.000000E+000,  1.056389E+002, -3.501722E-001, -1.137086E+000,  5.104535E-001
  2.332129E+002,  2.221352E+002,  0.000000E+000, -1.017307E+002,  1.124497E+000, -1.719235E+000,  5.104127E-001
  2.424237E+002,  2.324343E+002,  0.000000E+000, -9.328555E+001,  1.298245E+000, -1.775914E+000,  5.102967E-001
  2.514828E+002,  2.434793E+002,  0.000000E+000, -8.355932E+001,  1.367650E+000, -1.720218E+000,  5.102051E-001
  2.597095E+002,  2.550296E+002,  0.000000E+000, -7.310388E+001,  1.293495E+000, -1.579039E+000,  5.102796E-001
  2.670518E+002,  2.664598E+002,  0.000000E+000, -6.222545E+001,  1.068759E+000, -1.283863E+000,  5.106624E-001
  2.732049E+002,  2.772119E+002,  0.000000E+000, -5.083748E+001,  7.694140E-001, -8.528135E-001,  5.100104E-001
  2.785108E+002,  2.872868E+002,  0.000000E+000, -3.899111E+001,  4.649156E-001, -4.690862E-001,  5.100260E-001
  2.824140E+002,  2.953144E+002,  0.000000E+000, -2.704463E+001,  2.716185E-001, -6.543809E-002,  5.100923E-001
  2.846806E+002,  3.002983E+002,  0.000000E+000, -1.562120E+001,  8.131091E-002,  5.086551E-001,  5.106980E-001
  2.854137E+002,  3.030019E+002,  0.000000E+000, -4.484496E+000, -1.418212E-001,  8.152701E-001,  5.105861E-001
  2.853279E+002,  3.036150E+002,  0.000000E+000,  6.761316E+000, -2.096016E-001,  1.113089E+000,  5.101753E-001
  2.843580E+002,  3.016094E+002,  0.000000E+000,  1.748238E+001, -1.463504E-001,  1.255777E+000,  5.101870E-001
  2.821808E+002,  2.972598E+002,  0.000000E+000,  2.847755E+001,  1.285691E-001,  1.302548E+000,  5.105038E-001
  2.788153E+002,  2.906157E+002,  0.000000E+000,  3.984279E+001,  4.130198E-001,  1.084027E+000,  5.102389E-001
  2.740368E+002,  2.819910E+002,  0.000000E+000,  5.118306E+001,  4.309984E-001,  5.901666E-001,  5.104827E-001
  2.676233E+002,  2.722728E+002,  0.000000E+000,  6.244376E+001,  1.738665E-001,  1.639828E-001,  5.105905E-001
  2.594501E+002,  2.619434E+002,  0.000000E+000,  7.353146E+001, -1.487096E-001, -2.659992E-001,  5.107459E-001
  2.501183E+002,  2.511833E+002,  0.000000E+000,  8.413681E+001, -2.137275E-001, -6.675183E-001,  5.100384E-001
  2.398781E+002,  2.404255E+002,  0.000000E+000,  9.368754E+001, -3.938254E-001, -1.067825E+000,  5.105983E-001
  2.294918E+002,  2.297054E+002,  0.000000E+000,  1.020631E+002, -3.342639E-001, -1.338149E+000,  5.101039E-001
  2.316081E+002,  2.354241E+002,  0.000000E+000, -9.732599E+001,  1.520851E+000, -1.796815E+000,  5.101516E-001
  2.406004E+002,  2.458576E+002,  0.000000E+000, -8.856053E+001,  1.612607E+000, -1.840137E+000,  5.100491E-001
  2.497519E+002,  2.567989E+002,  0.000000E+000, -7.873094E+001,  1.693657E+000, -1.737148E+000,  5.102863E-001
  2.581319E+002,  2.676088E+002,  0.000000E+000, -6.849096E+001,  1.632430E+000, -1.435495E+000,  5.105210E-001
  2.657506E+002,  2.781040E+002,  0.000000E+000, -5.781835E+001,  1.392193E+000, -1.043564E+000,  5.104590E-001
  2.719717E+002,  2.878573E+002,  0.000000E+000, -4.680284E+001,  1.067714E+000, -5.438559E-001,  5.107809E-001
  2.769559E+002,  2.964626E+002,  0.000000E+000, -3.558015E+001,  7.662458E-001, -1.263596E-001,  5.100251E-001
  2.803454E+002,  3.027761E+002,  0.000000E+000, -2.462496E+001,  5.397703E-001,  3.668576E-001,  5.104937E-001
  2.822429E+002,  3.070056E+002,  0.000000E+000, -1.407689E+001,  1.985730E-001,  8.890060E-001,  5.107934E-001
  2.828677E+002,  3.091411E+002,  0.000000E+000, -3.746664E+000,  8.659239E-003,  1.226429E+000,  5.103160E-001
  2.827774E+002,  3.094445E+002,  0.000000E+000,  6.478991E+000, -6.001239E-002,  1.550395E+000,  5.107151E-001
  2.817596E+002,  3.082466E+002,  0.000000E+000,  1.635217E+001,  1.295843E-001,  1.674877E+000,  5.108172E-001
  2.796892E+002,  3.052583E+002,  0.000000E+000,  2.643899E+001,  3.695000E-001,  1.800321E+000,  5.105770E-001
  2.765095E+002,  3.003837E+002,  0.000000E+000,  3.692658E+001,  4.779587E-001,  1.616932E+000,  5.104019E-001
  2.718608E+002,  2.933105E+002,  0.000000E+000,  4.772277E+001,  4.148837E-001,  1.075729E+000,  5.105917E-001
  2.654316E+002,  2.847192E+002,  0.000000E+000,  5.862845E+001,  2.357829E-001,  4.845389E-001,  5.101091E-001
  2.573212E+002,  2.750905E+002,  0.000000E+000,  6.949090E+001,  8.622872E-002,  5.910094E-002,  5.103875E-001
  2.479247E+002,  2.647913E+002,  0.000000E+000,  8.003458E+001, -4.779213E-002, -4.101238E-001,  5.101424E-001
  2.380849E+002,  2.543491E+002,  0.000000E+000,  8.971450E+001, -1.455993E-001, -9.373535E-001,  5.103256E-001
  2.281458E+002,  2.441359E+002,  0.000000E+000,  9.825639E+001, -1.949638E-001, -1.348681E+000,  5.105440E-001
