 S11, S22, S33, S12, S23, S31, wp
 -1.159394E+002, -2.407807E+002,  0.000000E+000, -1.096493E+002,  5.548261E-001, -8.420865E-001,  5.001466E-001
 -1.197533E+002, -2.526979E+002,  0.000000E+000, -1.028337E+002,  3.546860E-001, -7.379116E-001,  5.006008E-001
 -1.230698E+002, -2.641448E+002,  0.000000E+000, -9.479552E+001,  1.407609E-001, -5.955080E-001,  5.001195E-001
 -1.259464E+002, -2.753496E+002,  0.000000E+000, -8.549690E+001,  1.767428E-002, -4.566307E-001,  5.006525E-001
 -1.283607E+002, -2.864219E+002,  0.000000E+000, -7.500903E+001,  1.830142E-002, -3.144571E-001,  5.003839E-001
 -1.303216E+002, -2.975916E+002,  0.000000E+000, -6.346836E+001,  2.873449E-002, -1.306201E-001,  5.007440E-001
 -1.321234E+002, -3.090496E+002,  0.000000E+000, -5.066481E+001,  9.633332E-002,  8.625529E-002,  5.003776E-001
 -1.339030E+002, -3.205967E+002,  0.000000E+000, -3.656030E+001,  1.893680E-001,  3.786643E-001,  5.008662E-001
 -1.348667E+002, -3.303454E+002,  0.000000E+000, -2.240170E+001,  2.962514E-001,  7.059288E-001,  5.002085E-001
 -1.349520E+002, -3.370413E+002,  0.000000E+000, -7.492650E+000,  5.250349E-001,  1.247140E+000,  5.000822E-001
 -1.349887E+002, -3.377645E+002,  0.000000E+000,  8.951729E+000,  8.446823E-001,  1.220897E+000,  5.006984E-001
 -1.352530E+002, -3.311795E+002,  0.000000E+000,  2.345555E+001,  1.087417E+000,  8.640588E-001,  5.007044E-001
 -1.343005E+002, -3.209810E+002,  0.000000E+000,  3.789509E+001,  1.242587E+000,  8.643210E-001,  5.007601E-001
 -1.327991E+002, -3.096578E+002,  0.000000E+000,  5.195805E+001,  1.376665E+000,  9.369997E-001,  5.004335E-001
 -1.313486E+002, -2.985135E+002,  0.000000E+000,  6.477173E+001,  1.424766E+000,  1.025016E+000,  5.002586E-001
 -1.298258E+002, -2.877272E+002,  0.000000E+000,  7.631404E+001,  1.343587E+000,  1.125267E+000,  5.000882E-001
 -1.281090E+002, -2.773475E+002,  0.000000E+000,  8.657288E+001,  1.275153E+000,  1.258591E+000,  5.002563E-001
 -1.260271E+002, -2.671699E+002,  0.000000E+000,  9.555242E+001,  1.270518E+000,  1.431380E+000,  5.007751E-001
 -1.233134E+002, -2.563861E+002,  0.000000E+000,  1.032964E+002,  1.188119E+000,  1.543894E+000,  5.002353E-001
 -1.195983E+002, -2.444636E+002,  0.000000E+000,  1.099317E+002,  1.089437E+000,  1.631860E+000,  5.004993E-001
 -9.176731E+001, -2.397380E+002,  0.000000E+000, -1.096935E+002,  5.653196E-001, -9.603712E-001,  5.005472E-001
 -9.423538E+001, -2.524279E+002,  0.000000E+000, -1.030937E+002,  3.912501E-001, -8.684680E-001,  5.005942E-001
 -9.619054E+001, -2.645908E+002,  0.000000E+000, -9.504662E+001,  1.990301E-001, -7.287385E-001,  5.003815E-001
 -9.772700E+001, -2.764537E+002,  0.000000E+000, -8.561083E+001,  1.850935E-002, -5.508450E-001,  5.000049E-001
 -9.873134E+001, -2.880373E+002,  0.000000E+000, -7.483395E+001, -5.809246E-002, -3.679135E-001,  5.001315E-001
 -9.916150E+001, -2.994708E+002,  0.000000E+000, -6.285264E+001, -5.665160E-002, -1.745996E-001,  5.002743E-001
 -9.918256E+001, -3.109867E+002,  0.000000E+000, -4.974001E+001,  1.189848E-002,  5.085194E-002,  5.008057E-001
 -9.901221E+001, -3.224592E+002,  0.000000E+000, -3.535841E+001,  1.252582E-001,  2.626211E-001,  5.001524E-001
 -9.822796E+001, -3.324017E+002,  0.000000E+000, -2.086459E+001,  2.736104E-001,  4.583169E-001,  5.000111E-001
 -9.701489E+001, -3.396861E+002,  0.000000E+000, -6.454070E+000,  5.895885E-001,  5.345312E-001,  5.004363E-001
 -9.721934E+001, -3.394405E+002,  0.000000E+000,  7.850584E+000,  9.566157E-001,  3.355830E-001,  5.004344E-001
 -9.851722E+001, -3.327800E+002,  0.000000E+000,  2.188020E+001,  1.205005E+000,  3.750501E-001,  5.005751E-001
 -9.911373E+001, -3.225874E+002,  0.000000E+000,  3.665287E+001,  1.324135E+000,  4.059402E-001,  5.001702E-001
 -9.946221E+001, -3.113496E+002,  0.000000E+000,  5.089660E+001,  1.392481E+000,  4.809765E-001,  5.001129E-001
 -9.975935E+001, -3.001787E+002,  0.000000E+000,  6.394785E+001,  1.363078E+000,  5.927194E-001,  5.002771E-001
 -9.994211E+001, -2.892557E+002,  0.000000E+000,  7.575123E+001,  1.283653E+000,  7.651441E-001,  5.006333E-001
 -9.986222E+001, -2.785810E+002,  0.000000E+000,  8.628841E+001,  1.254212E+000,  9.507890E-001,  5.006902E-001
 -9.938189E+001, -2.678223E+002,  0.000000E+000,  9.542604E+001,  1.202278E+000,  1.098123E+000,  5.006758E-001
 -9.792844E+001, -2.560321E+002,  0.000000E+000,  1.032849E+002,  1.168346E+000,  1.233919E+000,  5.003298E-001
 -9.559870E+001, -2.430814E+002,  0.000000E+000,  1.096589E+002,  1.144180E+000,  1.349083E+000,  5.001391E-001
 -9.349206E+001, -2.265149E+002,  0.000000E+000, -1.147637E+002,  6.759720E-001, -9.932607E-001,  5.000656E-001
 -9.670286E+001, -2.290137E+002,  0.000000E+000,  1.150911E+002,  1.089334E+000,  1.485185E+000,  5.006176E-001
 -9.505499E+001, -2.116174E+002,  0.000000E+000, -1.195512E+002,  7.566705E-001, -1.005789E+000,  5.005288E-001
 -9.743354E+001, -2.134178E+002,  0.000000E+000,  1.202219E+002,  1.072289E+000,  1.630166E+000,  5.004794E-001
 -9.630748E+001, -1.950733E+002,  0.000000E+000, -1.242269E+002,  8.198912E-001, -1.022236E+000,  5.000106E-001
 -9.783005E+001, -1.966696E+002,  0.000000E+000,  1.250281E+002,  1.106859E+000,  1.758847E+000,  5.004122E-001
 -6.682333E+001, -2.382147E+002,  0.000000E+000, -1.085982E+002,  5.940020E-001, -1.007400E+000,  5.005870E-001
 -6.732757E+001, -2.512976E+002,  0.000000E+000, -1.026911E+002,  4.754034E-001, -9.327893E-001,  5.002064E-001
 -6.784390E+001, -2.642637E+002,  0.000000E+000, -9.468653E+001,  2.718232E-001, -7.825003E-001,  5.005881E-001
 -6.782529E+001, -2.766483E+002,  0.000000E+000, -8.519484E+001,  3.577583E-002, -5.876199E-001,  5.003081E-001
 -6.745421E+001, -2.887650E+002,  0.000000E+000, -7.419681E+001, -1.371624E-001, -3.786716E-001,  5.003591E-001
 -6.672544E+001, -3.005377E+002,  0.000000E+000, -6.192516E+001, -1.226147E-001, -1.821829E-001,  5.005783E-001
 -6.565115E+001, -3.120485E+002,  0.000000E+000, -4.851391E+001, -5.281779E-002,  1.707022E-002,  5.004920E-001
 -6.467114E+001, -3.232283E+002,  0.000000E+000, -3.401018E+001,  8.343172E-002,  9.102772E-002,  5.000921E-001
 -6.367076E+001, -3.328889E+002,  0.000000E+000, -1.936906E+001,  3.143518E-001,  3.110951E-002,  5.004108E-001
 -6.257605E+001, -3.388604E+002,  0.000000E+000, -5.510382E+000,  6.646831E-001, -3.500662E-001,  5.003508E-001
 -6.255234E+001, -3.384443E+002,  0.000000E+000,  6.956682E+000,  9.912113E-001, -3.185168E-001,  5.009411E-001
 -6.321337E+001, -3.327619E+002,  0.000000E+000,  2.052998E+001,  1.263408E+000, -9.729856E-002,  5.007217E-001
 -6.404738E+001, -3.232346E+002,  0.000000E+000,  3.522595E+001,  1.400863E+000,  2.317149E-002,  5.005271E-001
 -6.545893E+001, -3.122539E+002,  0.000000E+000,  4.952687E+001,  1.396118E+000,  1.043055E-001,  5.008058E-001
 -6.708865E+001, -3.011043E+002,  0.000000E+000,  6.269749E+001,  1.254048E+000,  2.376379E-001,  5.001725E-001
 -6.861265E+001, -2.900650E+002,  0.000000E+000,  7.468293E+001,  1.141513E+000,  4.105761E-001,  5.000745E-001
 -7.010503E+001, -2.791751E+002,  0.000000E+000,  8.532762E+001,  1.100101E+000,  5.852288E-001,  5.006532E-001
 -7.114458E+001, -2.677448E+002,  0.000000E+000,  9.459988E+001,  1.058481E+000,  7.593871E-001,  5.007265E-001
 -7.121259E+001, -2.547963E+002,  0.000000E+000,  1.024316E+002,  1.028679E+000,  9.355237E-001,  5.001506E-001
 -7.058408E+001, -2.409681E+002,  0.000000E+000,  1.084873E+002,  1.033987E+000,  1.071408E+000,  5.006717E-001
 -6.773948E+001, -2.246548E+002,  0.000000E+000, -1.134871E+002,  7.003972E-001, -1.072636E+000,  5.006461E-001
 -7.085898E+001, -2.264856E+002,  0.000000E+000,  1.139464E+002,  1.065502E+000,  1.204689E+000,  5.004100E-001
 -6.848195E+001, -2.095307E+002,  0.000000E+000, -1.183709E+002,  7.500068E-001, -1.109013E+000,  5.002561E-001
 -7.105755E+001, -2.107420E+002,  0.000000E+000,  1.192005E+002,  1.112469E+000,  1.317737E+000,  5.001181E-001
 -6.899166E+001, -1.928731E+002,  0.000000E+000, -1.232558E+002,  7.831666E-001, -1.137495E+000,  5.007510E-001
 -7.086705E+001, -1.937184E+002,  0.000000E+000,  1.243446E+002,  1.175756E+000,  1.415836E+000,  5.006083E-001
 -6.906042E+001, -1.744403E+002,  0.000000E+000, -1.280694E+002,  7.931164E-001, -1.184725E+000,  5.004385E-001
 -6.992638E+001, -1.751175E+002,  0.000000E+000,  1.292979E+002,  1.256605E+000,  1.485277E+000,  5.004496E-001
 -6.830915E+001, -1.540906E+002,  0.000000E+000, -1.326822E+002,  7.063051E-001, -1.238535E+000,  5.004624E-001
 -6.773669E+001, -1.547259E+002,  0.000000E+000,  1.338942E+002,  1.408799E+000,  1.558270E+000,  5.003480E-001
 -6.464222E+001, -1.297602E+002,  0.000000E+000, -1.367343E+002,  3.734527E-001, -1.222853E+000,  5.003726E-001
 -6.228134E+001, -1.302820E+002,  0.000000E+000,  1.378049E+002,  1.666970E+000,  1.626884E+000,  5.001671E-001
 -5.447137E+001, -9.637485E+001,  0.000000E+000, -1.399326E+002, -1.280596E-001, -1.095880E+000,  5.003665E-001
 -5.126397E+001, -9.798976E+001,  0.000000E+000,  1.408617E+002,  1.842898E+000,  1.545102E+000,  5.000998E-001
 -4.102620E+001, -2.356712E+002,  0.000000E+000, -1.067683E+002,  6.293977E-001, -1.013165E+000,  5.001165E-001
 -3.963309E+001, -2.490242E+002,  0.000000E+000, -1.012558E+002,  5.215412E-001, -9.289054E-001,  5.006566E-001
 -3.846325E+001, -2.625881E+002,  0.000000E+000, -9.360364E+001,  3.648095E-001, -8.147334E-001,  5.001375E-001
 -3.707152E+001, -2.755384E+002,  0.000000E+000, -8.410875E+001,  1.470256E-001, -6.449171E-001,  5.006232E-001
 -3.559810E+001, -2.880591E+002,  0.000000E+000, -7.315980E+001, -7.740666E-002, -4.770726E-001,  5.000026E-001
 -3.428124E+001, -3.000949E+002,  0.000000E+000, -6.085465E+001, -1.215497E-001, -3.486506E-001,  5.002261E-001
 -3.332636E+001, -3.114209E+002,  0.000000E+000, -4.745276E+001,  5.309374E-002, -3.462312E-001,  5.009267E-001
 -3.292357E+001, -3.221238E+002,  0.000000E+000, -3.307099E+001,  2.109949E-001, -3.632591E-001,  5.008672E-001
 -3.281325E+001, -3.313946E+002,  0.000000E+000, -1.839666E+001,  4.143437E-001, -4.675471E-001,  5.006279E-001
 -3.267396E+001, -3.359162E+002,  0.000000E+000, -5.253871E+000,  7.395746E-001, -8.532455E-001,  5.002140E-001
 -3.230038E+001, -3.355401E+002,  0.000000E+000,  6.771489E+000,  1.078557E+000, -7.237514E-001,  5.000532E-001
 -3.212496E+001, -3.306302E+002,  0.000000E+000,  2.001122E+001,  1.354541E+000, -5.156893E-001,  5.001647E-001
 -3.192004E+001, -3.220573E+002,  0.000000E+000,  3.428451E+001,  1.545584E+000, -3.315435E-001,  5.005836E-001
 -3.279334E+001, -3.117584E+002,  0.000000E+000,  4.816230E+001,  1.424278E+000, -1.480412E-001,  5.003737E-001
 -3.464574E+001, -3.008631E+002,  0.000000E+000,  6.118471E+001,  1.184277E+000, -2.895327E-002,  5.006914E-001
 -3.721482E+001, -2.897935E+002,  0.000000E+000,  7.308890E+001,  1.030962E+000,  1.006362E-001,  5.005974E-001
 -3.998937E+001, -2.785523E+002,  0.000000E+000,  8.367713E+001,  8.848576E-001,  2.369873E-001,  5.007509E-001
 -4.223609E+001, -2.661910E+002,  0.000000E+000,  9.291624E+001,  7.964799E-001,  4.035598E-001,  5.006390E-001
 -4.360448E+001, -2.519104E+002,  0.000000E+000,  1.004430E+002,  7.384069E-001,  5.892485E-001,  5.001000E-001
 -4.458846E+001, -2.377080E+002,  0.000000E+000,  1.065338E+002,  7.499189E-001,  7.612495E-001,  5.002605E-001
 -4.099030E+001, -2.220105E+002,  0.000000E+000, -1.116166E+002,  7.338805E-001, -1.111822E+000,  5.000870E-001
 -4.415058E+001, -2.232575E+002,  0.000000E+000,  1.119656E+002,  8.085756E-001,  8.795230E-001,  5.005936E-001
 -4.083329E+001, -2.068129E+002,  0.000000E+000, -1.165820E+002,  7.986755E-001, -1.191414E+000,  5.007386E-001
 -4.355616E+001, -2.073675E+002,  0.000000E+000,  1.173629E+002,  9.378837E-001,  9.855783E-001,  5.001544E-001
 -4.019367E+001, -1.896692E+002,  0.000000E+000, -1.215537E+002,  7.937354E-001, -1.214806E+000,  5.001662E-001
 -4.232258E+001, -1.897721E+002,  0.000000E+000,  1.227760E+002,  1.000819E+000,  1.067218E+000,  5.005613E-001
 -3.874137E+001, -1.703203E+002,  0.000000E+000, -1.265144E+002,  7.475707E-001, -1.230145E+000,  5.000991E-001
 -3.985082E+001, -1.698911E+002,  0.000000E+000,  1.280560E+002,  1.053183E+000,  1.132066E+000,  5.001614E-001
 -3.531397E+001, -1.474883E+002,  0.000000E+000, -1.313201E+002,  5.553038E-001, -1.226230E+000,  5.007079E-001
 -3.483898E+001, -1.465781E+002,  0.000000E+000,  1.329827E+002,  1.274859E+000,  1.220362E+000,  5.004600E-001
 -2.671993E+001, -1.174277E+002,  0.000000E+000, -1.353746E+002,  1.345645E-001, -1.122952E+000,  5.005435E-001
 -2.512521E+001, -1.172731E+002,  0.000000E+000,  1.370563E+002,  1.595998E+000,  1.351749E+000,  5.003826E-001
 -1.450219E+001, -8.223931E+001,  0.000000E+000, -1.385791E+002, -4.251598E-001, -9.983044E-001,  5.007418E-001
 -1.184390E+001, -8.288708E+001,  0.000000E+000,  1.401358E+002,  1.730867E+000,  1.443296E+000,  5.006213E-001
 -1.981272E+000, -4.587453E+001,  0.000000E+000, -1.410609E+002, -1.018713E+000, -9.624296E-001,  5.002530E-001
  1.797003E+000, -4.735490E+001,  0.000000E+000,  1.422646E+002,  1.771401E+000,  1.341345E+000,  5.001934E-001
  1.064741E+001, -9.359236E+000,  0.000000E+000, -1.426739E+002, -1.472975E+000, -1.009543E+000,  5.002142E-001
  1.536916E+001, -1.201329E+001,  0.000000E+000,  1.433001E+002,  1.566571E+000,  1.222194E+000,  5.000319E-001
  2.377509E+001,  2.673038E+001,  0.000000E+000, -1.432711E+002, -1.779178E+000, -1.130988E+000,  5.002684E-001
  2.875675E+001,  2.354072E+001,  0.000000E+000,  1.433314E+002,  1.163949E+000,  1.078453E+000,  5.001009E-001
  3.747871E+001,  6.251681E+001,  0.000000E+000, -1.426804E+002, -1.925191E+000, -1.335223E+000,  5.002374E-001
  4.180098E+001,  5.993877E+001,  0.000000E+000,  1.421725E+002,  6.815963E-001,  1.052618E+000,  5.001005E-001
 -1.481579E+001, -2.315650E+002,  0.000000E+000, -1.042314E+002,  6.810620E-001, -9.597778E-001,  5.003272E-001
 -1.210534E+001, -2.441076E+002,  0.000000E+000, -9.859880E+001,  5.853621E-001, -9.204399E-001,  5.005819E-001
 -9.884759E+000, -2.577271E+002,  0.000000E+000, -9.142180E+001,  4.530210E-001, -8.665693E-001,  5.003741E-001
 -8.341121E+000, -2.713386E+002,  0.000000E+000, -8.218812E+001,  2.583079E-001, -7.530145E-001,  5.003685E-001
 -7.411617E+000, -2.839262E+002,  0.000000E+000, -7.157233E+001,  7.690598E-002, -6.303299E-001,  5.008242E-001
 -7.667774E+000, -2.957893E+002,  0.000000E+000, -5.965873E+001, -3.267937E-002, -5.699087E-001,  5.005764E-001
 -8.406665E+000, -3.070010E+002,  0.000000E+000, -4.652430E+001,  6.977938E-002, -5.243090E-001,  5.004059E-001
 -9.154459E+000, -3.175458E+002,  0.000000E+000, -3.250242E+001,  2.767020E-001, -5.647233E-001,  5.009323E-001
 -9.643576E+000, -3.270939E+002,  0.000000E+000, -1.772404E+001,  5.371941E-001, -7.024809E-001,  5.003573E-001
 -9.207327E+000, -3.317735E+002,  0.000000E+000, -4.929080E+000,  7.290879E-001, -8.680411E-001,  5.005829E-001
 -8.905890E+000, -3.315361E+002,  0.000000E+000,  6.739858E+000,  1.087556E+000, -8.098946E-001,  5.009984E-001
 -8.525144E+000, -3.262510E+002,  0.000000E+000,  1.982950E+001,  1.438157E+000, -6.273327E-001,  5.005076E-001
 -7.637772E+000, -3.177393E+002,  0.000000E+000,  3.374952E+001,  1.584682E+000, -4.366057E-001,  5.001697E-001
 -7.108698E+000, -3.080028E+002,  0.000000E+000,  4.698980E+001,  1.458374E+000, -3.201954E-001,  5.009256E-001
 -7.498212E+000, -2.976769E+002,  0.000000E+000,  5.950914E+001,  1.235946E+000, -2.192217E-001,  5.009842E-001
 -9.113546E+000, -2.868859E+002,  0.000000E+000,  7.092558E+001,  9.154409E-001, -1.247047E-001,  5.000487E-001
 -1.143573E+001, -2.750377E+002,  0.000000E+000,  8.129347E+001,  6.743392E-001, -1.962378E-002,  5.001920E-001
 -1.366037E+001, -2.611896E+002,  0.000000E+000,  9.030652E+001,  5.249020E-001,  1.524760E-001,  5.005517E-001
 -1.600234E+001, -2.467223E+002,  0.000000E+000,  9.767877E+001,  4.201024E-001,  3.238757E-001,  5.003827E-001
 -1.841922E+001, -2.332226E+002,  0.000000E+000,  1.038770E+002,  3.873765E-001,  4.389139E-001,  5.004810E-001
 -1.330507E+001, -2.178709E+002,  0.000000E+000, -1.089601E+002,  7.516688E-001, -1.039178E+000,  5.000661E-001
 -1.674128E+001, -2.187411E+002,  0.000000E+000,  1.091176E+002,  3.572213E-001,  4.816448E-001,  5.002877E-001
 -1.166269E+001, -2.023883E+002,  0.000000E+000, -1.138462E+002,  8.068203E-001, -1.149003E+000,  5.000392E-001
 -1.484156E+001, -2.025347E+002,  0.000000E+000,  1.144971E+002,  3.781851E-001,  5.388587E-001,  5.000798E-001
 -9.759042E+000, -1.848297E+002,  0.000000E+000, -1.188536E+002,  8.008046E-001, -1.230954E+000,  5.006645E-001
 -1.227623E+001, -1.840443E+002,  0.000000E+000,  1.200406E+002,  5.384320E-001,  6.579591E-001,  5.002987E-001
 -6.700137E+000, -1.641364E+002,  0.000000E+000, -1.239057E+002,  7.053578E-001, -1.236474E+000,  5.003577E-001
 -8.040892E+000, -1.622506E+002,  0.000000E+000,  1.256118E+002,  8.034517E-001,  8.298947E-001,  5.005835E-001
  3.535505E-001, -1.368998E+002,  0.000000E+000, -1.288339E+002,  4.694193E-001, -1.150858E+000,  5.006130E-001
  1.300798E-001, -1.348193E+002,  0.000000E+000,  1.307672E+002,  1.132781E+000,  9.922236E-001,  5.004291E-001
  1.201643E+001, -1.030027E+002,  0.000000E+000, -1.329218E+002, -7.755790E-002, -9.642616E-001,  5.002948E-001
  1.278155E+001, -1.017532E+002,  0.000000E+000,  1.350255E+002,  1.520116E+000,  1.179130E+000,  5.006123E-001
  2.451342E+001, -6.807173E+001,  0.000000E+000, -1.363001E+002, -7.246506E-001, -8.545953E-001,  5.008097E-001
  2.657656E+001, -6.761312E+001,  0.000000E+000,  1.382270E+002,  1.723249E+000,  1.312724E+000,  5.004811E-001
  3.725226E+001, -3.230614E+001,  0.000000E+000, -1.390256E+002, -1.344276E+000, -8.828556E-001,  5.006978E-001
  4.030737E+001, -3.275196E+001,  0.000000E+000,  1.406446E+002,  1.792355E+000,  1.341953E+000,  5.000818E-001
  4.996197E+001,  3.998270E+000,  0.000000E+000, -1.409654E+002, -1.776477E+000, -9.773517E-001,  5.000507E-001
  5.376216E+001,  2.176993E+000,  0.000000E+000,  1.421620E+002,  1.546623E+000,  1.254808E+000,  5.007753E-001
  6.280394E+001,  4.054483E+001,  0.000000E+000, -1.420427E+002, -2.023929E+000, -1.146176E+000,  5.004540E-001
  6.714578E+001,  3.752821E+001,  0.000000E+000,  1.426614E+002,  1.083807E+000,  1.154106E+000,  5.002107E-001
  7.587466E+001,  7.670141E+001,  0.000000E+000, -1.417435E+002, -2.148847E+000, -1.322384E+000,  5.007551E-001
  8.038461E+001,  7.363038E+001,  0.000000E+000,  1.418380E+002,  6.061060E-001,  1.064149E+000,  5.000697E-001
  8.805102E+001,  1.112686E+002,  0.000000E+000, -1.400274E+002, -2.029583E+000, -1.577415E+000,  5.003105E-001
  9.260439E+001,  1.094830E+002,  0.000000E+000,  1.398043E+002,  8.696793E-002,  1.117820E+000,  5.004108E-001
  9.433456E+001,  1.381034E+002,  0.000000E+000, -1.371277E+002, -1.922531E+000, -1.867296E+000,  5.004821E-001
  9.714090E+001,  1.361204E+002,  0.000000E+000,  1.366765E+002, -2.783256E-001,  1.047089E+000,  5.002512E-001
  9.647297E+001,  1.593689E+002,  0.000000E+000, -1.335838E+002, -1.636859E+000, -1.998097E+000,  5.004393E-001
  9.760223E+001,  1.574560E+002,  0.000000E+000,  1.330068E+002, -6.373480E-001,  1.052266E+000,  5.005573E-001
  9.762104E+001,  1.786742E+002,  0.000000E+000, -1.295243E+002, -1.265772E+000, -1.889752E+000,  5.006756E-001
  9.725614E+001,  1.770406E+002,  0.000000E+000,  1.287598E+002, -8.012469E-001,  1.043135E+000,  5.003260E-001
  1.065471E+001, -2.253515E+002,  0.000000E+000, -1.010794E+002,  7.582213E-001, -9.238004E-001,  5.002037E-001
  1.421646E+001, -2.367993E+002,  0.000000E+000, -9.545278E+001,  6.889735E-001, -8.470903E-001,  5.004250E-001
  1.686463E+001, -2.489398E+002,  0.000000E+000, -8.872178E+001,  5.623568E-001, -7.061737E-001,  5.000078E-001
  1.718921E+001, -2.622628E+002,  0.000000E+000, -8.022004E+001,  3.503956E-001, -4.998179E-001,  5.008754E-001
  1.617835E+001, -2.751651E+002,  0.000000E+000, -7.021867E+001,  1.359544E-001, -4.017713E-001,  5.008578E-001
  1.450095E+001, -2.876122E+002,  0.000000E+000, -5.885412E+001,  2.255883E-002, -4.202910E-001,  5.006876E-001
  1.235353E+001, -2.999339E+002,  0.000000E+000, -4.603584E+001,  9.496619E-002, -5.113497E-001,  5.003719E-001
  1.052439E+001, -3.114275E+002,  0.000000E+000, -3.213565E+001,  4.180340E-001, -6.566972E-001,  5.007438E-001
  9.276875E+000, -3.213265E+002,  0.000000E+000, -1.753097E+001,  7.054841E-001, -7.841844E-001,  5.003515E-001
  9.104313E+000, -3.267110E+002,  0.000000E+000, -4.618938E+000,  8.516256E-001, -8.382305E-001,  5.003454E-001
  9.007604E+000, -3.265838E+002,  0.000000E+000,  6.724623E+000,  9.522508E-001, -8.315052E-001,  5.010457E-001
  1.005025E+001, -3.209654E+002,  0.000000E+000,  2.010424E+001,  1.249998E+000, -6.309189E-001,  5.008910E-001
  1.178921E+001, -3.120546E+002,  0.000000E+000,  3.362942E+001,  1.374402E+000, -3.357246E-001,  5.007227E-001
  1.376152E+001, -3.015451E+002,  0.000000E+000,  4.643787E+001,  1.297886E+000, -1.077377E-001,  5.007333E-001
  1.514889E+001, -2.907372E+002,  0.000000E+000,  5.825874E+001,  1.111223E+000, -3.709031E-002,  5.005122E-001
  1.541593E+001, -2.795019E+002,  0.000000E+000,  6.903926E+001,  8.539665E-001,  4.264411E-003,  5.003786E-001
  1.518242E+001, -2.664600E+002,  0.000000E+000,  7.884178E+001,  5.571367E-001,  5.001584E-002,  5.000300E-001
  1.367295E+001, -2.525896E+002,  0.000000E+000,  8.728755E+001,  3.601254E-001,  1.041914E-001,  5.000195E-001
  1.064018E+001, -2.394482E+002,  0.000000E+000,  9.441076E+001,  2.399931E-001,  2.206082E-001,  5.000931E-001
  7.175509E+000, -2.270215E+002,  0.000000E+000,  1.006414E+002,  1.714521E-001,  3.186874E-001,  5.005037E-001
  1.352019E+001, -2.116996E+002,  0.000000E+000, -1.055528E+002,  7.946531E-001, -9.755190E-001,  5.007948E-001
  1.033763E+001, -2.124079E+002,  0.000000E+000,  1.055728E+002,  1.165195E-001,  3.521196E-001,  5.008364E-001
  1.653896E+001, -1.962058E+002,  0.000000E+000, -1.101875E+002,  7.938671E-001, -1.017636E+000,  5.007361E-001
  1.385330E+001, -1.957781E+002,  0.000000E+000,  1.107195E+002,  1.009644E-001,  3.752597E-001,  5.003791E-001
  2.030325E+001, -1.780255E+002,  0.000000E+000, -1.150750E+002,  7.289257E-001, -1.044957E+000,  5.004385E-001
  1.840336E+001, -1.762832E+002,  0.000000E+000,  1.161592E+002,  1.279136E-001,  4.123152E-001,  5.005436E-001
  2.716262E+001, -1.542028E+002,  0.000000E+000, -1.202124E+002,  5.336285E-001, -9.675289E-001,  5.007230E-001
  2.579678E+001, -1.515569E+002,  0.000000E+000,  1.218523E+002,  2.866601E-001,  5.297370E-001,  5.005387E-001
  3.862059E+001, -1.225576E+002,  0.000000E+000, -1.250977E+002,  3.288932E-001, -8.441859E-001,  5.005214E-001
  3.729031E+001, -1.202039E+002,  0.000000E+000,  1.272725E+002,  7.119134E-001,  7.125339E-001,  5.006570E-001
  5.051951E+001, -8.909736E+001,  0.000000E+000, -1.295090E+002, -5.837865E-002, -8.167889E-001,  5.003010E-001
  4.993236E+001, -8.682224E+001,  0.000000E+000,  1.319626E+002,  1.172376E+000,  9.233509E-001,  5.002470E-001
  6.272251E+001, -5.444623E+001,  0.000000E+000, -1.332995E+002, -7.585059E-001, -7.196236E-001,  5.004265E-001
  6.336731E+001, -5.292931E+001,  0.000000E+000,  1.356361E+002,  1.596812E+000,  1.139481E+000,  5.003230E-001
  7.536858E+001, -1.923530E+001,  0.000000E+000, -1.363001E+002, -1.494626E+000, -7.891559E-001,  5.006148E-001
  7.716244E+001, -1.883344E+001,  0.000000E+000,  1.383448E+002,  1.691587E+000,  1.226294E+000,  5.005107E-001
  8.814144E+001,  1.666807E+001,  0.000000E+000, -1.385596E+002, -1.968907E+000, -9.657253E-001,  5.001910E-001
  9.067284E+001,  1.559697E+001,  0.000000E+000,  1.401965E+002,  1.460808E+000,  1.241800E+000,  5.002999E-001
  1.007874E+002,  5.311845E+001,  0.000000E+000, -1.399027E+002, -2.227577E+000, -1.137926E+000,  5.001756E-001
  1.040582E+002,  5.085078E+001,  0.000000E+000,  1.409993E+002,  1.027437E+000,  1.160609E+000,  5.007249E-001
  1.130551E+002,  8.927578E+001,  0.000000E+000, -1.398374E+002, -2.344212E+000, -1.363916E+000,  5.002172E-001
  1.170354E+002,  8.659767E+001,  0.000000E+000,  1.404523E+002,  5.367740E-001,  1.122720E+000,  5.005336E-001
  1.198538E+002,  1.187554E+002,  0.000000E+000, -1.383064E+002, -2.310655E+000, -1.726775E+000,  5.000810E-001
  1.234541E+002,  1.157207E+002,  0.000000E+000,  1.385794E+002,  2.483903E-001,  9.220463E-001,  5.001870E-001
  1.213940E+002,  1.416205E+002,  0.000000E+000, -1.357401E+002, -1.965771E+000, -2.042929E+000,  5.004320E-001
  1.240493E+002,  1.384240E+002,  0.000000E+000,  1.358078E+002, -1.799786E-001,  7.905422E-001,  5.003788E-001
  1.225671E+002,  1.624881E+002,  0.000000E+000, -1.326334E+002, -1.605308E+000, -2.242308E+000,  5.002181E-001
  1.240142E+002,  1.594668E+002,  0.000000E+000,  1.325409E+002, -5.326108E-001,  7.571884E-001,  5.004168E-001
  1.232108E+002,  1.816377E+002,  0.000000E+000, -1.290715E+002, -1.224808E+000, -2.249504E+000,  5.005407E-001
  1.234044E+002,  1.789081E+002,  0.000000E+000,  1.288335E+002, -7.247127E-001,  8.393585E-001,  5.007916E-001
  1.231736E+002,  1.991845E+002,  0.000000E+000, -1.250492E+002, -9.911084E-001, -2.073469E+000,  5.001936E-001
  1.220058E+002,  1.967104E+002,  0.000000E+000,  1.246266E+002, -7.946416E-001,  8.638945E-001,  5.000560E-001
  1.224366E+002,  2.156082E+002,  0.000000E+000, -1.205976E+002, -9.530330E-001, -1.933111E+000,  5.005263E-001
  1.202041E+002,  2.130640E+002,  0.000000E+000,  1.201855E+002, -7.768388E-001,  8.650393E-001,  5.003665E-001
  1.213065E+002,  2.309313E+002,  0.000000E+000, -1.155854E+002, -1.011165E+000, -1.788171E+000,  5.006574E-001
  1.180304E+002,  2.276589E+002,  0.000000E+000,  1.155098E+002, -7.031870E-001,  8.531301E-001,  5.000842E-001
  3.436764E+001, -2.180984E+002,  0.000000E+000, -9.775848E+001,  7.840296E-001, -7.777044E-001,  5.004176E-001
  3.824368E+001, -2.280011E+002,  0.000000E+000, -9.242033E+001,  7.270076E-001, -5.992067E-001,  5.000048E-001
  4.068878E+001, -2.381522E+002,  0.000000E+000, -8.631746E+001,  6.026078E-001, -3.519732E-001,  5.002278E-001
  4.122562E+001, -2.494559E+002,  0.000000E+000, -7.866247E+001,  4.252916E-001, -1.661794E-001,  5.000603E-001
  3.992098E+001, -2.619094E+002,  0.000000E+000, -6.926544E+001,  2.820570E-001, -1.184000E-001,  5.001987E-001
  3.737630E+001, -2.750301E+002,  0.000000E+000, -5.844371E+001,  2.082122E-001, -2.341414E-001,  5.003680E-001
  3.376684E+001, -2.887049E+002,  0.000000E+000, -4.604974E+001,  2.774075E-001, -4.432719E-001,  5.006535E-001
  2.988662E+001, -3.020701E+002,  0.000000E+000, -3.228407E+001,  5.251067E-001, -7.403809E-001,  5.007686E-001
  2.683623E+001, -3.136204E+002,  0.000000E+000, -1.764055E+001,  8.365723E-001, -8.945979E-001,  5.003258E-001
  2.567409E+001, -3.202507E+002,  0.000000E+000, -4.390690E+000,  9.472459E-001, -8.007702E-001,  5.009064E-001
  2.595297E+001, -3.198393E+002,  0.000000E+000,  6.779374E+000,  9.050336E-001, -7.355102E-001,  5.006505E-001
  2.729323E+001, -3.135217E+002,  0.000000E+000,  2.039522E+001,  9.385639E-001, -5.011108E-001,  5.001415E-001
  3.054353E+001, -3.031925E+002,  0.000000E+000,  3.395349E+001,  1.009810E+000, -1.285698E-001,  5.008944E-001
  3.437282E+001, -2.912942E+002,  0.000000E+000,  4.646133E+001,  1.038305E+000,  1.626346E-001,  5.007785E-001
  3.771106E+001, -2.789897E+002,  0.000000E+000,  5.765288E+001,  9.671632E-001,  2.900641E-001,  5.000218E-001
  3.988911E+001, -2.664987E+002,  0.000000E+000,  6.779965E+001,  7.375010E-001,  3.119553E-001,  5.001492E-001
  4.029461E+001, -2.540066E+002,  0.000000E+000,  7.687312E+001,  5.150783E-001,  3.066375E-001,  5.001177E-001
  3.871297E+001, -2.421842E+002,  0.000000E+000,  8.449745E+001,  3.039960E-001,  2.782183E-001,  5.005153E-001
  3.554261E+001, -2.307300E+002,  0.000000E+000,  9.111443E+001,  1.470360E-001,  2.705058E-001,  5.002344E-001
  3.151362E+001, -2.194700E+002,  0.000000E+000,  9.715455E+001,  6.442185E-002,  3.173237E-001,  5.006368E-001
  3.836643E+001, -2.044664E+002,  0.000000E+000, -1.017607E+002,  7.847831E-001, -8.271363E-001,  5.009016E-001
  3.604394E+001, -2.045468E+002,  0.000000E+000,  1.016588E+002,  1.910708E-002,  3.746882E-001,  5.002151E-001
  4.289125E+001, -1.884935E+002,  0.000000E+000, -1.061073E+002,  7.109940E-001, -8.435156E-001,  5.004890E-001
  4.142644E+001, -1.871923E+002,  0.000000E+000,  1.065112E+002, -9.148271E-004,  4.248770E-001,  5.005998E-001
  5.002246E+001, -1.677292E+002,  0.000000E+000, -1.108850E+002,  5.255163E-001, -7.596891E-001,  5.005421E-001
  4.924261E+001, -1.652740E+002,  0.000000E+000,  1.117860E+002,  4.467829E-002,  5.143979E-001,  5.001567E-001
  6.213041E+001, -1.391820E+002,  0.000000E+000, -1.159230E+002,  2.789975E-001, -5.207413E-001,  5.003654E-001
  6.127185E+001, -1.367534E+002,  0.000000E+000,  1.172796E+002,  1.403698E-001,  5.939074E-001,  5.007622E-001
  7.492967E+001, -1.082663E+002,  0.000000E+000, -1.207470E+002,  6.267619E-002, -3.223145E-001,  5.000850E-001
  7.396871E+001, -1.057303E+002,  0.000000E+000,  1.226170E+002,  3.746458E-001,  5.851635E-001,  5.002956E-001
  8.753273E+001, -7.596882E+001,  0.000000E+000, -1.251991E+002, -1.831079E-001, -4.284345E-001,  5.004612E-001
  8.647529E+001, -7.330256E+001,  0.000000E+000,  1.275929E+002,  6.262269E-001,  7.065118E-001,  5.004975E-001
  9.985442E+001, -4.207165E+001,  0.000000E+000, -1.293807E+002, -6.032401E-001, -5.673910E-001,  5.006478E-001
  9.905332E+001, -3.956084E+001,  0.000000E+000,  1.320353E+002,  1.016096E+000,  9.413142E-001,  5.003952E-001
  1.121999E+002, -7.084102E+000,  0.000000E+000, -1.328752E+002, -1.291367E+000, -6.493340E-001,  5.000798E-001
  1.124593E+002, -5.693637E+000,  0.000000E+000,  1.352959E+002,  1.331715E+000,  1.107739E+000,  5.004469E-001
  1.248850E+002,  2.842742E+001,  0.000000E+000, -1.355088E+002, -1.911267E+000, -8.953149E-001,  5.006591E-001
  1.261208E+002,  2.825771E+001,  0.000000E+000,  1.375145E+002,  1.247699E+000,  1.138474E+000,  5.007826E-001
  1.372339E+002,  6.450734E+001,  0.000000E+000, -1.370339E+002, -2.271210E+000, -1.174159E+000,  5.002745E-001
  1.393594E+002,  6.321228E+001,  0.000000E+000,  1.385428E+002,  9.200491E-001,  1.115811E+000,  5.002480E-001
  1.453284E+002,  9.680773E+001,  0.000000E+000, -1.371006E+002, -2.500467E+000, -1.533112E+000,  5.003675E-001
  1.478288E+002,  9.431322E+001,  0.000000E+000,  1.381463E+002,  7.032347E-001,  9.239907E-001,  5.006024E-001
  1.462233E+002,  1.209476E+002,  0.000000E+000, -1.359044E+002, -2.248855E+000, -1.935658E+000,  5.001666E-001
  1.486626E+002,  1.176536E+002,  0.000000E+000,  1.366308E+002,  3.327207E-001,  7.379823E-001,  5.007523E-001
  1.467924E+002,  1.438411E+002,  0.000000E+000, -1.338561E+002, -1.870505E+000, -2.206855E+000,  5.007200E-001
  1.488600E+002,  1.399834E+002,  0.000000E+000,  1.343358E+002, -7.863408E-002,  5.612986E-001,  5.002797E-001
  1.471745E+002,  1.648674E+002,  0.000000E+000, -1.311934E+002, -1.517389E+000, -2.388387E+000,  5.002035E-001
  1.484982E+002,  1.608420E+002,  0.000000E+000,  1.315038E+002, -4.199017E-001,  5.217827E-001,  5.002046E-001
  1.473369E+002,  1.840113E+002,  0.000000E+000, -1.281019E+002, -1.178401E+000, -2.501429E+000,  5.002651E-001
  1.476191E+002,  1.801336E+002,  0.000000E+000,  1.282544E+002, -6.462379E-001,  5.571517E-001,  5.005473E-001
  1.469194E+002,  2.014677E+002,  0.000000E+000, -1.245448E+002, -9.333850E-001, -2.402267E+000,  5.000197E-001
  1.460534E+002,  1.978635E+002,  0.000000E+000,  1.245415E+002, -7.543779E-001,  6.483829E-001,  5.005114E-001
  1.459936E+002,  2.176883E+002,  0.000000E+000, -1.203243E+002, -8.257454E-001, -2.202526E+000,  5.005013E-001
  1.437716E+002,  2.140253E+002,  0.000000E+000,  1.203270E+002, -7.639151E-001,  6.947264E-001,  5.001006E-001
  1.446414E+002,  2.327242E+002,  0.000000E+000, -1.151041E+002, -9.047509E-001, -2.037198E+000,  5.001180E-001
  1.415372E+002,  2.287739E+002,  0.000000E+000,  1.149457E+002, -7.147193E-001,  7.152603E-001,  5.005231E-001
  1.423204E+002,  2.451542E+002,  0.000000E+000, -1.093236E+002, -9.940935E-001, -1.864285E+000,  5.004852E-001
  1.470365E+002,  2.559341E+002,  0.000000E+000, -1.027295E+002, -1.098869E+000, -1.776393E+000,  5.003703E-001
  1.509466E+002,  2.659017E+002,  0.000000E+000, -9.505370E+001, -1.146791E+000, -1.661700E+000,  5.007645E-001
  1.544200E+002,  2.755866E+002,  0.000000E+000, -8.625305E+001, -1.224430E+000, -1.536299E+000,  5.003953E-001
  1.578254E+002,  2.856937E+002,  0.000000E+000, -7.626956E+001, -1.296615E+000, -1.410789E+000,  5.001594E-001
  1.613156E+002,  2.963105E+002,  0.000000E+000, -6.498413E+001, -1.374527E+000, -1.361986E+000,  5.000721E-001
  1.648995E+002,  3.073166E+002,  0.000000E+000, -5.237247E+001, -1.360974E+000, -1.308299E+000,  5.003464E-001
  1.684614E+002,  3.184416E+002,  0.000000E+000, -3.856586E+001, -1.216021E+000, -1.241984E+000,  5.002130E-001
  1.712299E+002,  3.281427E+002,  0.000000E+000, -2.450647E+001, -9.914616E-001, -1.332430E+000,  5.003245E-001
  1.721818E+002,  3.323975E+002,  0.000000E+000, -9.121315E+000, -7.122265E-001, -1.722615E+000,  5.003603E-001
  1.719997E+002,  3.316159E+002,  0.000000E+000,  7.846561E+000, -4.277476E-001, -1.602860E+000,  5.002641E-001
  1.708157E+002,  3.270154E+002,  0.000000E+000,  2.329064E+001, -2.405572E-001, -1.035334E+000,  5.005893E-001
  1.680361E+002,  3.177069E+002,  0.000000E+000,  3.703298E+001, -1.275939E-001, -5.653187E-001,  5.004135E-001
  1.640552E+002,  3.064464E+002,  0.000000E+000,  5.082086E+001, -7.655975E-002, -2.604608E-001,  5.002264E-001
  1.599590E+002,  2.951819E+002,  0.000000E+000,  6.345855E+001, -9.905754E-002, -4.268092E-004,  5.002010E-001
  1.560946E+002,  2.842671E+002,  0.000000E+000,  7.474840E+001, -9.096065E-002,  1.984791E-001,  5.008264E-001
  1.523051E+002,  2.736322E+002,  0.000000E+000,  8.488028E+001, -9.150938E-002,  3.383761E-001,  5.008674E-001
  1.481916E+002,  2.630785E+002,  0.000000E+000,  9.400365E+001, -1.591262E-001,  4.460776E-001,  5.005989E-001
  1.436655E+002,  2.522761E+002,  0.000000E+000,  1.020236E+002, -3.324223E-001,  5.745899E-001,  5.004831E-001
  1.388387E+002,  2.411828E+002,  0.000000E+000,  1.089138E+002, -5.410190E-001,  6.948162E-001,  5.002732E-001
  5.572186E+001, -2.098557E+002,  0.000000E+000, -9.455564E+001,  7.306855E-001, -4.678420E-001,  5.002251E-001
  5.951310E+001, -2.182183E+002,  0.000000E+000, -8.969210E+001,  6.532433E-001, -2.433122E-001,  5.006604E-001
  6.223712E+001, -2.267821E+002,  0.000000E+000, -8.412539E+001,  5.515226E-001, -8.518729E-003,  5.008909E-001
  6.344703E+001, -2.362925E+002,  0.000000E+000, -7.715864E+001,  4.218934E-001,  1.419420E-001,  5.000866E-001
  6.296781E+001, -2.471380E+002,  0.000000E+000, -6.840517E+001,  3.334391E-001,  1.263008E-001,  5.001569E-001
  6.126989E+001, -2.587951E+002,  0.000000E+000, -5.822904E+001,  3.007130E-001, -3.189621E-002,  5.000524E-001
  5.846545E+001, -2.712476E+002,  0.000000E+000, -4.649495E+001,  3.985366E-001, -2.813205E-001,  5.007134E-001
  5.483806E+001, -2.840690E+002,  0.000000E+000, -3.329993E+001,  6.073491E-001, -6.198097E-001,  5.003653E-001
  5.074309E+001, -2.966442E+002,  0.000000E+000, -1.886688E+001,  8.141257E-001, -9.023385E-001,  5.004084E-001
  4.747721E+001, -3.057548E+002,  0.000000E+000, -4.723691E+000,  9.129114E-001, -8.202515E-001,  5.000576E-001
  4.880513E+001, -3.042951E+002,  0.000000E+000,  7.720291E+000,  8.090806E-001, -5.272315E-001,  5.007975E-001
  5.266814E+001, -2.952726E+002,  0.000000E+000,  2.152706E+001,  7.367338E-001, -2.000861E-001,  5.001460E-001
  5.640875E+001, -2.844107E+002,  0.000000E+000,  3.482674E+001,  8.514995E-001,  1.940833E-001,  5.007460E-001
  5.974379E+001, -2.731919E+002,  0.000000E+000,  4.690201E+001,  9.135343E-001,  5.035422E-001,  5.008283E-001
  6.232389E+001, -2.622070E+002,  0.000000E+000,  5.741616E+001,  8.496036E-001,  6.657347E-001,  5.004381E-001
  6.371369E+001, -2.513503E+002,  0.000000E+000,  6.683978E+001,  6.912397E-001,  6.885816E-001,  5.002235E-001
  6.352251E+001, -2.408147E+002,  0.000000E+000,  7.507509E+001,  4.962799E-001,  6.389255E-001,  5.000690E-001
  6.153314E+001, -2.307368E+002,  0.000000E+000,  8.202910E+001,  3.214421E-001,  5.600889E-001,  5.005240E-001
  5.821895E+001, -2.208576E+002,  0.000000E+000,  8.805440E+001,  1.643556E-001,  4.910157E-001,  5.002771E-001
  5.406438E+001, -2.109027E+002,  0.000000E+000,  9.373187E+001,  4.279646E-002,  4.394916E-001,  5.006188E-001
  6.141808E+001, -1.961116E+002,  0.000000E+000, -9.805595E+001,  6.834079E-001, -5.013869E-001,  5.001925E-001
  6.035348E+001, -1.954844E+002,  0.000000E+000,  9.784008E+001, -7.196280E-003,  5.003749E-001,  5.002890E-001
  6.890013E+001, -1.782096E+002,  0.000000E+000, -1.021042E+002,  5.395173E-001, -5.080032E-001,  5.003108E-001
  6.862712E+001, -1.760856E+002,  0.000000E+000,  1.024071E+002,  1.431002E-002,  5.905826E-001,  5.006304E-001
  8.142708E+001, -1.523673E+002,  0.000000E+000, -1.067222E+002,  3.213073E-001, -3.418503E-001,  5.001793E-001
  8.118173E+001, -1.500198E+002,  0.000000E+000,  1.073995E+002,  4.320608E-002,  7.355202E-001,  5.003717E-001
  9.469549E+001, -1.242066E+002,  0.000000E+000, -1.114837E+002,  7.595371E-002, -1.094403E-001,  5.000021E-001
  9.437550E+001, -1.217883E+002,  0.000000E+000,  1.125005E+002,  1.393847E-001,  7.917211E-001,  5.000952E-001
  1.082191E+002, -9.446614E+001,  0.000000E+000, -1.161779E+002, -1.534810E-001,  1.518734E-001,  5.006816E-001
  1.077080E+002, -9.203065E+001,  0.000000E+000,  1.175735E+002,  2.739599E-001,  6.909787E-001,  5.005359E-001
  1.215800E+002, -6.355789E+001,  0.000000E+000, -1.205998E+002, -4.500205E-001,  1.471927E-001,  5.001807E-001
  1.207739E+002, -6.101536E+001,  0.000000E+000,  1.224919E+002,  3.569363E-001,  6.881707E-001,  5.004066E-001
  1.344842E+002, -3.086270E+001,  0.000000E+000, -1.248140E+002, -7.141032E-001, -1.293611E-001,  5.004863E-001
  1.334654E+002, -2.824253E+001,  0.000000E+000,  1.272249E+002,  4.540029E-001,  8.252248E-001,  5.007148E-001
  1.471221E+002,  3.579342E+000,  0.000000E+000, -1.287415E+002, -1.103160E+000, -4.284289E-001,  5.000849E-001
  1.461874E+002,  5.988441E+000,  0.000000E+000,  1.314165E+002,  7.079257E-001,  9.671487E-001,  5.002475E-001
  1.594833E+002,  3.880383E+001,  0.000000E+000, -1.318630E+002, -1.723506E+000, -7.107990E-001,  5.005366E-001
  1.595540E+002,  3.988343E+001,  0.000000E+000,  1.341745E+002,  9.185635E-001,  1.059110E+000,  5.001386E-001
  1.692214E+002,  7.246159E+001,  0.000000E+000, -1.334981E+002, -2.255366E+000, -1.171263E+000,  5.006197E-001
  1.700976E+002,  7.200440E+001,  0.000000E+000,  1.353594E+002,  9.486823E-001,  9.305012E-001,  5.005835E-001
  1.703506E+002,  9.811072E+001,  0.000000E+000, -1.338002E+002, -2.340642E+000, -1.600983E+000,  5.005405E-001
  1.713891E+002,  9.598332E+001,  0.000000E+000,  1.352354E+002,  7.357770E-001,  6.786068E-001,  5.007140E-001
  1.708445E+002,  1.221864E+002,  0.000000E+000, -1.330718E+002, -2.127336E+000, -2.019313E+000,  5.006306E-001
  1.718650E+002,  1.188264E+002,  0.000000E+000,  1.341357E+002,  4.025828E-001,  4.941327E-001,  5.007491E-001
  1.708860E+002,  1.449204E+002,  0.000000E+000, -1.314703E+002, -1.777275E+000, -2.361553E+000,  5.003444E-001
  1.717358E+002,  1.408028E+002,  0.000000E+000,  1.323082E+002, -5.995623E-003,  3.778438E-001,  5.002009E-001
  1.705844E+002,  1.662427E+002,  0.000000E+000, -1.293300E+002, -1.424495E+000, -2.560176E+000,  5.004924E-001
  1.711427E+002,  1.615156E+002,  0.000000E+000,  1.299621E+002, -3.372685E-001,  2.957104E-001,  5.000768E-001
  1.701301E+002,  1.856714E+002,  0.000000E+000, -1.266963E+002, -1.100377E+000, -2.653086E+000,  5.007154E-001
  1.700289E+002,  1.807550E+002,  0.000000E+000,  1.271280E+002, -5.654435E-001,  3.135459E-001,  5.000331E-001
  1.693679E+002,  2.032846E+002,  0.000000E+000, -1.235219E+002, -8.616860E-001, -2.663053E+000,  5.002084E-001
  1.684033E+002,  1.984185E+002,  0.000000E+000,  1.238807E+002, -6.968656E-001,  3.809751E-001,  5.003442E-001
  1.685052E+002,  2.197330E+002,  0.000000E+000, -1.191938E+002, -7.447227E-001, -2.476843E+000,  5.003632E-001
  1.663509E+002,  2.149295E+002,  0.000000E+000,  1.193464E+002, -7.496862E-001,  4.686025E-001,  5.007145E-001
  1.668020E+002,  2.342157E+002,  0.000000E+000, -1.136729E+002, -7.754944E-001, -2.248510E+000,  5.003505E-001
  1.637316E+002,  2.294508E+002,  0.000000E+000,  1.134336E+002, -6.682541E-001,  5.423630E-001,  5.001428E-001
  1.635318E+002,  2.455824E+002,  0.000000E+000, -1.081258E+002, -9.078756E-001, -2.068761E+000,  5.003387E-001
  1.690986E+002,  2.553989E+002,  0.000000E+000, -1.015209E+002, -9.555994E-001, -1.969503E+000,  5.003087E-001
  1.741508E+002,  2.646160E+002,  0.000000E+000, -9.392109E+001, -9.763267E-001, -1.841812E+000,  5.004078E-001
  1.790120E+002,  2.738270E+002,  0.000000E+000, -8.527009E+001, -1.052724E+000, -1.730668E+000,  5.003265E-001
  1.841964E+002,  2.835369E+002,  0.000000E+000, -7.538887E+001, -1.177791E+000, -1.664978E+000,  5.001081E-001
  1.897014E+002,  2.937475E+002,  0.000000E+000, -6.427452E+001, -1.231504E+000, -1.606652E+000,  5.008360E-001
  1.952325E+002,  3.042058E+002,  0.000000E+000, -5.195075E+001, -1.191381E+000, -1.570661E+000,  5.002450E-001
  2.006548E+002,  3.146734E+002,  0.000000E+000, -3.843814E+001, -1.060937E+000, -1.653996E+000,  5.002275E-001
  2.048237E+002,  3.225797E+002,  0.000000E+000, -2.443573E+001, -8.192391E-001, -1.911850E+000,  5.003305E-001
  2.063305E+002,  3.245744E+002,  0.000000E+000, -8.772284E+000, -5.240516E-001, -1.858773E+000,  5.002698E-001
  2.060324E+002,  3.239381E+002,  0.000000E+000,  7.647008E+000, -2.953692E-001, -1.745337E+000,  5.007122E-001
  2.041860E+002,  3.211455E+002,  0.000000E+000,  2.307973E+001, -1.652134E-001, -1.498848E+000,  5.003858E-001
  2.000104E+002,  3.135793E+002,  0.000000E+000,  3.675337E+001, -4.648022E-002, -8.957875E-001,  5.004643E-001
  1.942338E+002,  3.030008E+002,  0.000000E+000,  5.010921E+001, -2.815715E-002, -4.844972E-001,  5.004154E-001
  1.882061E+002,  2.922861E+002,  0.000000E+000,  6.245032E+001, -3.889458E-002, -2.260015E-001,  5.002022E-001
  1.823120E+002,  2.818247E+002,  0.000000E+000,  7.370639E+001, -8.008609E-002,  8.151673E-003,  5.003421E-001
  1.767964E+002,  2.716658E+002,  0.000000E+000,  8.372720E+001, -1.462826E-001,  2.053540E-001,  5.001035E-001
  1.714916E+002,  2.617228E+002,  0.000000E+000,  9.262887E+001, -2.070264E-001,  3.237382E-001,  5.004030E-001
  1.659645E+002,  2.516027E+002,  0.000000E+000,  1.006327E+002, -3.212441E-001,  4.202366E-001,  5.003667E-001
  1.601831E+002,  2.411943E+002,  0.000000E+000,  1.076147E+002, -5.143064E-001,  5.324934E-001,  5.005213E-001
  7.527368E+001, -2.006827E+002,  0.000000E+000, -9.173203E+001,  5.839861E-001, -1.089692E-001,  5.007561E-001
  7.905223E+001, -2.078737E+002,  0.000000E+000, -8.722897E+001,  5.036432E-001,  1.165942E-001,  5.007651E-001
  8.212110E+001, -2.151962E+002,  0.000000E+000, -8.206043E+001,  4.043102E-001,  3.041339E-001,  5.008516E-001
  8.400610E+001, -2.232611E+002,  0.000000E+000, -7.561820E+001,  3.111997E-001,  4.268495E-001,  5.005349E-001
  8.437842E+001, -2.325701E+002,  0.000000E+000, -6.747914E+001,  2.588128E-001,  3.709925E-001,  5.009243E-001
  8.363606E+001, -2.426896E+002,  0.000000E+000, -5.783334E+001,  2.603612E-001,  1.915292E-001,  5.005005E-001
  8.232295E+001, -2.531995E+002,  0.000000E+000, -4.660690E+001,  3.604693E-001, -7.679615E-002,  5.005455E-001
  8.147169E+001, -2.629601E+002,  0.000000E+000, -3.364889E+001,  5.549139E-001, -4.019843E-001,  5.009888E-001
  8.221480E+001, -2.702958E+002,  0.000000E+000, -1.907476E+001,  7.103555E-001, -5.865295E-001,  5.000183E-001
  8.317368E+001, -2.748363E+002,  0.000000E+000, -4.605337E+000,  8.379201E-001, -4.436863E-001,  5.007734E-001
  8.358780E+001, -2.742112E+002,  0.000000E+000,  8.308789E+000,  7.265546E-001, -1.724586E-001,  5.003330E-001
  8.373489E+001, -2.696028E+002,  0.000000E+000,  2.200004E+001,  6.132695E-001,  7.272278E-002,  5.003072E-001
  8.407303E+001, -2.624896E+002,  0.000000E+000,  3.516907E+001,  7.170336E-001,  4.856654E-001,  5.000700E-001
  8.526315E+001, -2.537564E+002,  0.000000E+000,  4.690557E+001,  8.110867E-001,  8.112647E-001,  5.002543E-001
  8.640420E+001, -2.446952E+002,  0.000000E+000,  5.692280E+001,  7.424457E-001,  1.001619E+000,  5.004044E-001
  8.665231E+001, -2.357034E+002,  0.000000E+000,  6.578216E+001,  6.476868E-001,  1.054799E+000,  5.009412E-001
  8.558245E+001, -2.270328E+002,  0.000000E+000,  7.334187E+001,  5.014032E-001,  1.003555E+000,  5.005277E-001
  8.302935E+001, -2.185329E+002,  0.000000E+000,  7.975803E+001,  3.465282E-001,  8.956426E-001,  5.008123E-001
  7.941479E+001, -2.100267E+002,  0.000000E+000,  8.534819E+001,  2.020779E-001,  7.737339E-001,  5.002310E-001
  7.525636E+001, -2.012339E+002,  0.000000E+000,  9.064299E+001,  7.949307E-002,  6.911820E-001,  5.000889E-001
  8.404857E+001, -1.848319E+002,  0.000000E+000, -9.486842E+001,  4.994600E-001, -9.400703E-002,  5.000969E-001
  8.455258E+001, -1.837687E+002,  0.000000E+000,  9.437235E+001,  2.887376E-002,  7.572591E-001,  5.003102E-001
  9.720590E+001, -1.624324E+002,  0.000000E+000, -9.852832E+001,  3.059471E-001, -2.436062E-003,  5.000165E-001
  9.744316E+001, -1.605647E+002,  0.000000E+000,  9.856855E+001,  9.617350E-003,  8.546454E-001,  5.007850E-001
  1.107353E+002, -1.372682E+002,  0.000000E+000, -1.026902E+002,  9.055809E-002,  1.094637E-001,  5.007541E-001
  1.107735E+002, -1.350306E+002,  0.000000E+000,  1.031081E+002,  2.091928E-002,  9.573665E-001,  5.004012E-001
  1.245338E+002, -1.100300E+002,  0.000000E+000, -1.071015E+002, -1.268193E-001,  3.074171E-001,  5.004494E-001
  1.244236E+002, -1.077524E+002,  0.000000E+000,  1.078246E+002,  1.001136E-001,  9.741566E-001,  5.003741E-001
  1.384994E+002, -8.145133E+001,  0.000000E+000, -1.115488E+002, -3.116756E-001,  5.565734E-001,  5.003038E-001
  1.381714E+002, -7.925636E+001,  0.000000E+000,  1.125656E+002,  2.308410E-001,  8.948427E-001,  5.004223E-001
  1.523555E+002, -5.184019E+001,  0.000000E+000, -1.158723E+002, -5.768739E-001,  6.282356E-001,  5.000322E-001
  1.517465E+002, -4.964250E+001,  0.000000E+000,  1.172739E+002,  2.832744E-001,  8.352777E-001,  5.000399E-001
  1.659533E+002, -2.054903E+001,  0.000000E+000, -1.200648E+002, -8.737417E-001,  4.254476E-001,  5.000025E-001
  1.651298E+002, -1.819664E+001,  0.000000E+000,  1.219747E+002,  2.475711E-001,  8.553152E-001,  5.001534E-001
  1.788059E+002,  1.266820E+001,  0.000000E+000, -1.241229E+002, -1.120857E+000,  2.501263E-002,  5.004705E-001
  1.780027E+002,  1.527844E+001,  0.000000E+000,  1.265416E+002,  2.831188E-001,  8.839279E-001,  5.003569E-001
  1.894593E+002,  4.618497E+001,  0.000000E+000, -1.275934E+002, -1.568534E+000, -4.570592E-001,  5.003646E-001
  1.889931E+002,  4.859075E+001,  0.000000E+000,  1.301810E+002,  6.130355E-001,  8.667893E-001,  5.002677E-001
  1.919409E+002,  7.337768E+001,  0.000000E+000, -1.295537E+002, -1.938600E+000, -9.504447E-001,  5.000688E-001
  1.914832E+002,  7.345038E+001,  0.000000E+000,  1.316833E+002,  7.811549E-001,  7.047320E-001,  5.006485E-001
  1.930704E+002,  9.857666E+001,  0.000000E+000, -1.301540E+002, -2.082736E+000, -1.446255E+000,  5.007746E-001
  1.924936E+002,  9.678683E+001,  0.000000E+000,  1.319250E+002,  7.063366E-001,  5.116186E-001,  5.005745E-001
  1.934365E+002,  1.226195E+002,  0.000000E+000, -1.298047E+002, -1.904133E+000, -1.920067E+000,  5.007978E-001
  1.928431E+002,  1.192973E+002,  0.000000E+000,  1.312276E+002,  4.748551E-001,  3.185569E-001,  5.004928E-001
  1.931055E+002,  1.450502E+002,  0.000000E+000, -1.286320E+002, -1.607875E+000, -2.301069E+000,  5.003054E-001
  1.925357E+002,  1.407809E+002,  0.000000E+000,  1.297721E+002,  1.053484E-001,  1.725134E-001,  5.000250E-001
  1.921805E+002,  1.661286E+002,  0.000000E+000, -1.269631E+002, -1.311104E+000, -2.576390E+000,  5.007601E-001
  1.916525E+002,  1.612301E+002,  0.000000E+000,  1.278459E+002, -2.267550E-001,  1.148672E-001,  5.000523E-001
  1.907750E+002,  1.856849E+002,  0.000000E+000, -1.248152E+002, -1.013636E+000, -2.702585E+000,  5.003433E-001
  1.903397E+002,  1.804491E+002,  0.000000E+000,  1.254640E+002, -4.963048E-001,  9.974947E-002,  5.007964E-001
  1.896725E+002,  2.040591E+002,  0.000000E+000, -1.215287E+002, -7.469473E-001, -2.675789E+000,  5.004573E-001
  1.888968E+002,  1.985563E+002,  0.000000E+000,  1.221153E+002, -6.649397E-001,  1.746864E-001,  5.004532E-001
  1.889764E+002,  2.210451E+002,  0.000000E+000, -1.167476E+002, -6.536972E-001, -2.532739E+000,  5.000793E-001
  1.874903E+002,  2.154676E+002,  0.000000E+000,  1.169713E+002, -6.863917E-001,  3.035147E-001,  5.001151E-001
  1.871557E+002,  2.349076E+002,  0.000000E+000, -1.116738E+002, -6.699955E-001, -2.339348E+000,  5.006277E-001
  1.843358E+002,  2.293863E+002,  0.000000E+000,  1.113969E+002, -5.894994E-001,  3.289979E-001,  5.002532E-001
  1.832911E+002,  2.455447E+002,  0.000000E+000, -1.064947E+002, -7.744650E-001, -2.200378E+000,  5.005379E-001
  1.896316E+002,  2.546141E+002,  0.000000E+000, -9.983165E+001, -7.836564E-001, -2.100476E+000,  5.006604E-001
  1.956814E+002,  2.632206E+002,  0.000000E+000, -9.225231E+001, -8.021184E-001, -1.989466E+000,  5.007592E-001
  2.020955E+002,  2.719124E+002,  0.000000E+000, -8.352294E+001, -8.561243E-001, -1.884183E+000,  5.002516E-001
  2.090239E+002,  2.810271E+002,  0.000000E+000, -7.365641E+001, -9.333344E-001, -1.805845E+000,  5.003053E-001
  2.162153E+002,  2.904820E+002,  0.000000E+000, -6.272108E+001, -9.974281E-001, -1.789161E+000,  5.002865E-001
  2.235353E+002,  3.001266E+002,  0.000000E+000, -5.069651E+001, -9.812655E-001, -1.888909E+000,  5.000459E-001
  2.306158E+002,  3.094294E+002,  0.000000E+000, -3.746564E+001, -8.972349E-001, -2.125177E+000,  5.003446E-001
  2.352827E+002,  3.146447E+002,  0.000000E+000, -2.327623E+001, -6.328627E-001, -2.081108E+000,  5.005241E-001
  2.371759E+002,  3.164517E+002,  0.000000E+000, -8.352529E+000, -3.581307E-001, -1.926573E+000,  5.006961E-001
  2.367154E+002,  3.157408E+002,  0.000000E+000,  7.305579E+000, -1.861492E-001, -1.803797E+000,  5.006011E-001
  2.343717E+002,  3.131198E+002,  0.000000E+000,  2.194444E+001, -6.648688E-002, -1.621913E+000,  5.003778E-001
  2.295657E+002,  3.078173E+002,  0.000000E+000,  3.560326E+001,  3.756450E-002, -1.414896E+000,  5.004760E-001
  2.223134E+002,  2.985535E+002,  0.000000E+000,  4.866655E+001,  4.886964E-002, -9.096728E-001,  5.004273E-001
  2.146895E+002,  2.886580E+002,  0.000000E+000,  6.068346E+001,  4.558283E-002, -5.133071E-001,  5.007993E-001
  2.070883E+002,  2.788408E+002,  0.000000E+000,  7.171357E+001,  2.237543E-002, -2.608694E-001,  5.002000E-001
  1.997838E+002,  2.692827E+002,  0.000000E+000,  8.178994E+001, -7.242715E-002, -5.141693E-002,  5.004643E-001
  1.930276E+002,  2.599485E+002,  0.000000E+000,  9.078550E+001, -2.359874E-001,  1.564654E-001,  5.006754E-001
  1.865787E+002,  2.505089E+002,  0.000000E+000,  9.874652E+001, -3.568315E-001,  2.713215E-001,  5.004530E-001
  1.800473E+002,  2.407168E+002,  0.000000E+000,  1.058470E+002, -4.705125E-001,  3.491398E-001,  5.004429E-001
  9.610568E+001, -1.881788E+002,  0.000000E+000, -8.928952E+001,  3.924502E-001,  2.634633E-001,  5.002615E-001
  9.931411E+001, -1.952647E+002,  0.000000E+000, -8.497598E+001,  3.004978E-001,  4.578211E-001,  5.003294E-001
  1.022836E+002, -2.021299E+002,  0.000000E+000, -8.004255E+001,  1.966711E-001,  6.342772E-001,  5.001874E-001
  1.048009E+002, -2.089549E+002,  0.000000E+000, -7.395170E+001,  1.374513E-001,  7.191660E-001,  5.001039E-001
  1.065792E+002, -2.162659E+002,  0.000000E+000, -6.618418E+001,  1.101914E-001,  6.434059E-001,  5.004946E-001
  1.082091E+002, -2.235900E+002,  0.000000E+000, -5.658188E+001,  1.274552E-001,  4.790661E-001,  5.008713E-001
  1.102762E+002, -2.303124E+002,  0.000000E+000, -4.513620E+001,  1.981542E-001,  2.530458E-001,  5.005854E-001
  1.127431E+002, -2.361723E+002,  0.000000E+000, -3.203327E+001,  3.644508E-001,  9.797951E-003,  5.006132E-001
  1.152063E+002, -2.410215E+002,  0.000000E+000, -1.789826E+001,  5.537418E-001, -1.343783E-001,  5.000583E-001
  1.167044E+002, -2.444495E+002,  0.000000E+000, -4.187771E+000,  7.970640E-001,  1.584470E-002,  5.005798E-001
  1.170399E+002, -2.439997E+002,  0.000000E+000,  8.168593E+000,  8.288750E-001,  3.143222E-001,  5.006441E-001
  1.162759E+002, -2.410422E+002,  0.000000E+000,  2.117906E+001,  6.837470E-001,  5.064149E-001,  5.004139E-001
  1.146123E+002, -2.366644E+002,  0.000000E+000,  3.407317E+001,  6.660732E-001,  8.267546E-001,  5.004197E-001
  1.131081E+002, -2.310796E+002,  0.000000E+000,  4.580751E+001,  6.956308E-001,  1.099981E+000,  5.004490E-001
  1.117651E+002, -2.249160E+002,  0.000000E+000,  5.582303E+001,  6.281079E-001,  1.299688E+000,  5.003870E-001
  1.103381E+002, -2.181871E+002,  0.000000E+000,  6.436223E+001,  5.666376E-001,  1.382831E+000,  5.001039E-001
  1.081930E+002, -2.113767E+002,  0.000000E+000,  7.144265E+001,  4.704009E-001,  1.338284E+000,  5.008439E-001
  1.050476E+002, -2.042417E+002,  0.000000E+000,  7.747759E+001,  3.289815E-001,  1.228511E+000,  5.003629E-001
  1.014099E+002, -1.966721E+002,  0.000000E+000,  8.280968E+001,  2.051935E-001,  1.086479E+000,  5.007709E-001
  9.751808E+001, -1.884875E+002,  0.000000E+000,  8.785787E+001,  1.018486E-001,  9.739170E-001,  5.009116E-001
  1.094420E+002, -1.687081E+002,  0.000000E+000, -9.205601E+001,  2.582444E-001,  3.791705E-001,  5.006397E-001
  1.104907E+002, -1.680879E+002,  0.000000E+000,  9.119325E+001,  4.711781E-002,  1.086672E+000,  5.001833E-001
  1.232817E+002, -1.469313E+002,  0.000000E+000, -9.526668E+001,  7.513266E-002,  4.951166E-001,  5.007694E-001
  1.239123E+002, -1.455392E+002,  0.000000E+000,  9.494384E+001,  6.538843E-003,  1.144766E+000,  5.001157E-001
  1.374845E+002, -1.229068E+002,  0.000000E+000, -9.890578E+001, -1.313360E-001,  5.844476E-001,  5.006758E-001
  1.377025E+002, -1.209671E+002,  0.000000E+000,  9.903441E+001, -3.079686E-003,  1.180467E+000,  5.007323E-001
  1.516598E+002, -9.678149E+001,  0.000000E+000, -1.029100E+002, -3.156317E-001,  7.358962E-001,  5.001808E-001
  1.516199E+002, -9.476222E+001,  0.000000E+000,  1.033554E+002,  6.870737E-002,  1.177974E+000,  5.009093E-001
  1.657876E+002, -6.945642E+001,  0.000000E+000, -1.070279E+002, -4.900821E-001,  9.372020E-001,  5.001135E-001
  1.655583E+002, -6.746626E+001,  0.000000E+000,  1.077666E+002,  1.984052E-001,  1.102011E+000,  5.000657E-001
  1.799250E+002, -4.100903E+001,  0.000000E+000, -1.111735E+002, -6.878635E-001,  1.051504E+000,  5.003976E-001
  1.795687E+002, -3.908772E+001,  0.000000E+000,  1.122103E+002,  2.443034E-001,  1.048243E+000,  5.002247E-001
  1.937007E+002, -1.125044E+001,  0.000000E+000, -1.153034E+002, -9.493539E-001,  9.499038E-001,  5.004238E-001
  1.932563E+002, -9.151039E+000,  0.000000E+000,  1.167485E+002,  2.452818E-001,  9.954176E-001,  5.007586E-001
  2.046684E+002,  1.884681E+001,  0.000000E+000, -1.193976E+002, -1.246104E+000,  5.944652E-001,  5.007744E-001
  2.040530E+002,  2.112805E+001,  0.000000E+000,  1.213697E+002,  3.150854E-001,  8.713828E-001,  5.000032E-001
  2.092742E+002,  4.663491E+001,  0.000000E+000, -1.230241E+002, -1.356043E+000,  9.588290E-003,  5.006309E-001
  2.080089E+002,  4.881582E+001,  0.000000E+000,  1.255478E+002,  3.872668E-001,  6.716955E-001,  5.007082E-001
  2.108968E+002,  7.298843E+001,  0.000000E+000, -1.253295E+002, -1.482944E+000, -4.853781E-001,  5.005114E-001
  2.095510E+002,  7.377117E+001,  0.000000E+000,  1.277091E+002,  5.684790E-001,  5.228960E-001,  5.007087E-001
  2.114176E+002,  9.773326E+001,  0.000000E+000, -1.262164E+002, -1.628841E+000, -8.954434E-001,  5.008607E-001
  2.102570E+002,  9.650690E+001,  0.000000E+000,  1.282345E+002,  5.764564E-001,  3.851442E-001,  5.004127E-001
  2.112588E+002,  1.211712E+002,  0.000000E+000, -1.260821E+002, -1.451857E+000, -1.343018E+000,  5.005384E-001
  2.103030E+002,  1.185856E+002,  0.000000E+000,  1.278607E+002,  4.223017E-001,  2.545483E-001,  5.007045E-001
  2.104284E+002,  1.430285E+002,  0.000000E+000, -1.252131E+002, -1.198898E+000, -1.721336E+000,  5.006051E-001
  2.097012E+002,  1.394544E+002,  0.000000E+000,  1.266942E+002,  1.411938E-001,  1.177810E-001,  5.005290E-001
  2.089991E+002,  1.633366E+002,  0.000000E+000, -1.238560E+002, -9.705058E-001, -2.022278E+000,  5.001860E-001
  2.084488E+002,  1.592043E+002,  0.000000E+000,  1.250448E+002, -7.807958E-002, -7.288060E-003,  5.007387E-001
  2.072994E+002,  1.828483E+002,  0.000000E+000, -1.218311E+002, -7.768683E-001, -2.296895E+000,  5.004064E-001
  2.068568E+002,  1.781521E+002,  0.000000E+000,  1.227476E+002, -2.892325E-001, -4.918240E-002,  5.006013E-001
  2.061177E+002,  2.022296E+002,  0.000000E+000, -1.180753E+002, -6.326636E-001, -2.395285E+000,  5.000101E-001
  2.059251E+002,  1.972222E+002,  0.000000E+000,  1.185538E+002, -4.688051E-001,  3.538670E-002,  5.004929E-001
  2.049093E+002,  2.198183E+002,  0.000000E+000, -1.135952E+002, -5.639999E-001, -2.313482E+000,  5.002227E-001
  2.046115E+002,  2.143567E+002,  0.000000E+000,  1.137256E+002, -5.701794E-001,  1.691886E-001,  5.004504E-001
  2.034851E+002,  2.343528E+002,  0.000000E+000, -1.088733E+002, -5.174787E-001, -2.151864E+000,  5.002295E-001
  2.022518E+002,  2.283531E+002,  0.000000E+000,  1.086952E+002, -5.405011E-001,  2.334405E-001,  5.007003E-001
  2.008773E+002,  2.450049E+002,  0.000000E+000, -1.043032E+002, -6.116359E-001, -2.122476E+000,  5.006490E-001
  2.078587E+002,  2.533307E+002,  0.000000E+000, -9.752946E+001, -5.873002E-001, -1.976235E+000,  5.008443E-001
  2.151545E+002,  2.612436E+002,  0.000000E+000, -8.960480E+001, -6.045033E-001, -1.866014E+000,  5.001342E-001
  2.232127E+002,  2.693037E+002,  0.000000E+000, -8.072491E+001, -6.311391E-001, -1.779730E+000,  5.001385E-001
  2.317752E+002,  2.776247E+002,  0.000000E+000, -7.101700E+001, -6.868103E-001, -1.757009E+000,  5.008099E-001
  2.404506E+002,  2.862103E+002,  0.000000E+000, -6.033863E+001, -7.752265E-001, -1.865982E+000,  5.006567E-001
  2.490958E+002,  2.948180E+002,  0.000000E+000, -4.859579E+001, -8.144079E-001, -2.060954E+000,  5.003845E-001
  2.570537E+002,  3.022358E+002,  0.000000E+000, -3.541774E+001, -6.877979E-001, -2.060030E+000,  5.004110E-001
  2.619547E+002,  3.064647E+002,  0.000000E+000, -2.198271E+001, -4.502521E-001, -1.935086E+000,  5.005517E-001
  2.642694E+002,  3.083432E+002,  0.000000E+000, -7.897135E+000, -2.040794E-001, -1.831773E+000,  5.006429E-001
  2.637343E+002,  3.076674E+002,  0.000000E+000,  6.905079E+000, -8.275241E-002, -1.713933E+000,  5.005416E-001
  2.608412E+002,  3.050352E+002,  0.000000E+000,  2.068204E+001,  3.878314E-002, -1.517264E+000,  5.004407E-001
  2.556078E+002,  3.004100E+002,  0.000000E+000,  3.355485E+001,  1.187044E-001, -1.356180E+000,  5.000253E-001
  2.475719E+002,  2.928083E+002,  0.000000E+000,  4.644104E+001,  1.447493E-001, -1.138766E+000,  5.001603E-001
  2.387472E+002,  2.839956E+002,  0.000000E+000,  5.816978E+001,  1.469264E-001, -8.009021E-001,  5.002339E-001
  2.298739E+002,  2.750198E+002,  0.000000E+000,  6.893863E+001,  1.191921E-001, -5.279752E-001,  5.006409E-001
  2.211936E+002,  2.661612E+002,  0.000000E+000,  7.887602E+001,  5.949487E-002, -3.451820E-001,  5.001517E-001
  2.129992E+002,  2.574309E+002,  0.000000E+000,  8.803923E+001, -6.495729E-002, -1.775798E-001,  5.006318E-001
  2.054396E+002,  2.486441E+002,  0.000000E+000,  9.630153E+001, -2.664816E-001,  2.828677E-002,  5.002773E-001
  1.982571E+002,  2.395720E+002,  0.000000E+000,  1.035989E+002, -4.330809E-001,  1.924471E-001,  5.008037E-001
  1.190289E+002, -1.722966E+002,  0.000000E+000, -8.704643E+001,  1.367140E-001,  7.069319E-001,  5.004949E-001
  1.228765E+002, -1.781515E+002,  0.000000E+000, -8.286954E+001,  3.130069E-002,  8.889877E-001,  5.003518E-001
  1.264340E+002, -1.839743E+002,  0.000000E+000, -7.802798E+001, -6.838459E-002,  1.048199E+000,  5.007467E-001
  1.294943E+002, -1.898361E+002,  0.000000E+000, -7.187860E+001, -1.016446E-001,  1.107188E+000,  5.006506E-001
  1.323394E+002, -1.956453E+002,  0.000000E+000, -6.395963E+001, -1.331971E-001,  1.019036E+000,  5.008129E-001
  1.352986E+002, -2.011697E+002,  0.000000E+000, -5.427056E+001, -1.082742E-001,  8.761342E-001,  5.000447E-001
  1.386861E+002, -2.061008E+002,  0.000000E+000, -4.279942E+001, -3.257516E-003,  6.578077E-001,  5.010172E-001
  1.419871E+002, -2.104011E+002,  0.000000E+000, -3.009547E+001,  1.977417E-001,  4.305829E-001,  5.002972E-001
  1.444950E+002, -2.143160E+002,  0.000000E+000, -1.681415E+001,  4.686742E-001,  3.053135E-001,  5.004301E-001
  1.458613E+002, -2.171653E+002,  0.000000E+000, -3.845725E+000,  7.712015E-001,  4.643893E-001,  5.007015E-001
  1.462841E+002, -2.167277E+002,  0.000000E+000,  8.047288E+000,  9.098968E-001,  7.511356E-001,  5.002522E-001
  1.455629E+002, -2.143598E+002,  0.000000E+000,  2.022173E+001,  8.052711E-001,  9.396753E-001,  5.005014E-001
  1.435433E+002, -2.112010E+002,  0.000000E+000,  3.244175E+001,  7.585740E-001,  1.243034E+000,  5.004404E-001
  1.408861E+002, -2.073791E+002,  0.000000E+000,  4.399073E+001,  7.554032E-001,  1.498630E+000,  5.010013E-001
  1.384478E+002, -2.027945E+002,  0.000000E+000,  5.394906E+001,  6.726992E-001,  1.684830E+000,  5.000678E-001
  1.360247E+002, -1.976458E+002,  0.000000E+000,  6.244031E+001,  5.823880E-001,  1.769155E+000,  5.000843E-001
  1.332066E+002, -1.920688E+002,  0.000000E+000,  6.947059E+001,  5.084726E-001,  1.730402E+000,  5.005853E-001
  1.295989E+002, -1.861544E+002,  0.000000E+000,  7.524593E+001,  3.681596E-001,  1.619250E+000,  5.002911E-001
  1.253829E+002, -1.798688E+002,  0.000000E+000,  8.038542E+001,  2.329287E-001,  1.468287E+000,  5.007875E-001
  1.208982E+002, -1.730541E+002,  0.000000E+000,  8.526875E+001,  1.309911E-001,  1.308748E+000,  5.005834E-001
  1.327835E+002, -1.532516E+002,  0.000000E+000, -8.949225E+001,  1.399978E-002,  8.383721E-001,  5.003302E-001
  1.342398E+002, -1.531933E+002,  0.000000E+000,  8.824891E+001,  4.769385E-002,  1.397372E+000,  5.003680E-001
  1.470645E+002, -1.322403E+002,  0.000000E+000, -9.227842E+001, -1.502157E-001,  9.590358E-001,  5.004813E-001
  1.480459E+002, -1.314215E+002,  0.000000E+000,  9.156429E+001,  9.493719E-003,  1.425622E+000,  5.005210E-001
  1.616383E+002, -1.092718E+002,  0.000000E+000, -9.543813E+001, -3.396749E-001,  1.072346E+000,  5.002822E-001
  1.620516E+002, -1.078561E+002,  0.000000E+000,  9.522919E+001,  1.184674E-002,  1.423364E+000,  5.002807E-001
  1.760519E+002, -8.458789E+001,  0.000000E+000, -9.895888E+001, -5.131936E-001,  1.172840E+000,  5.004229E-001
  1.761234E+002, -8.281268E+001,  0.000000E+000,  9.914981E+001,  8.055429E-002,  1.392922E+000,  5.006206E-001
  1.902134E+002, -5.849549E+001,  0.000000E+000, -1.027365E+002, -6.462133E-001,  1.330550E+000,  5.008529E-001
  1.901457E+002, -5.666047E+001,  0.000000E+000,  1.032329E+002,  1.964447E-001,  1.321387E+000,  5.002745E-001
  2.040235E+002, -3.142766E+001,  0.000000E+000, -1.066670E+002, -8.192428E-001,  1.453340E+000,  5.001962E-001
  2.039492E+002, -2.968950E+001,  0.000000E+000,  1.074254E+002,  2.981166E-001,  1.251763E+000,  5.003654E-001
  2.153323E+002, -4.849867E+000,  0.000000E+000, -1.107678E+002, -1.058374E+000,  1.406527E+000,  5.002977E-001
  2.148784E+002, -3.228210E+000,  0.000000E+000,  1.118805E+002,  3.764088E-001,  1.164706E+000,  5.006804E-001
  2.220133E+002,  2.039863E+001,  0.000000E+000, -1.148666E+002, -1.184935E+000,  1.141596E+000,  5.008002E-001
  2.203513E+002,  2.150283E+001,  0.000000E+000,  1.164839E+002,  3.585599E-001,  9.272618E-001,  5.002144E-001
  2.246135E+002,  4.547816E+001,  0.000000E+000, -1.183259E+002, -1.085075E+000,  5.917135E-001,  5.007490E-001
  2.226546E+002,  4.682812E+001,  0.000000E+000,  1.204958E+002,  3.480801E-001,  5.977637E-001,  5.001509E-001
  2.244784E+002,  7.043796E+001,  0.000000E+000, -1.207859E+002, -9.318758E-001,  1.414111E-001,  5.005706E-001
  2.227721E+002,  7.199968E+001,  0.000000E+000,  1.233236E+002,  3.550087E-001,  4.420495E-001,  5.006603E-001
  2.240223E+002,  9.483928E+001,  0.000000E+000, -1.220121E+002, -1.083520E+000, -2.417900E-001,  5.006420E-001
  2.228245E+002,  9.454340E+001,  0.000000E+000,  1.242031E+002,  4.011801E-001,  3.614004E-001,  5.001618E-001
  2.232664E+002,  1.176043E+002,  0.000000E+000, -1.221120E+002, -9.840498E-001, -7.015333E-001,  5.002843E-001
  2.224934E+002,  1.158908E+002,  0.000000E+000,  1.240604E+002,  3.060307E-001,  2.412737E-001,  5.009135E-001
  2.221143E+002,  1.389096E+002,  0.000000E+000, -1.215228E+002, -7.960393E-001, -1.170936E+000,  5.008382E-001
  2.215409E+002,  1.361785E+002,  0.000000E+000,  1.231685E+002,  1.250021E-001,  1.625395E-001,  5.003315E-001
  2.206075E+002,  1.586544E+002,  0.000000E+000, -1.203611E+002, -6.082620E-001, -1.546253E+000,  5.004317E-001
  2.202274E+002,  1.552509E+002,  0.000000E+000,  1.217303E+002, -4.034461E-002,  5.763029E-002,  5.006089E-001
  2.197616E+002,  1.787903E+002,  0.000000E+000, -1.174587E+002, -4.566644E-001, -1.774834E+000,  5.008440E-001
  2.196077E+002,  1.750190E+002,  0.000000E+000,  1.184091E+002, -1.570363E-001,  1.411158E-003,  5.001617E-001
  2.189953E+002,  1.981299E+002,  0.000000E+000, -1.135625E+002, -3.881106E-001, -1.947094E+000,  5.006186E-001
  2.191250E+002,  1.940897E+002,  0.000000E+000,  1.140827E+002, -1.854007E-001, -3.850555E-003,  5.000640E-001
  2.179489E+002,  2.159184E+002,  0.000000E+000, -1.093572E+002, -4.243478E-001, -2.058845E+000,  5.003536E-001
  2.182447E+002,  2.114510E+002,  0.000000E+000,  1.094684E+002, -2.260038E-001,  1.015849E-002,  5.004769E-001
  2.165267E+002,  2.315963E+002,  0.000000E+000, -1.051562E+002, -4.367331E-001, -2.063178E+000,  5.006422E-001
  2.167400E+002,  2.260791E+002,  0.000000E+000,  1.048670E+002, -3.021830E-001,  4.900142E-002,  5.001476E-001
  2.145316E+002,  2.434844E+002,  0.000000E+000, -1.011571E+002, -4.621068E-001, -1.945607E+000,  5.005970E-001
  2.224996E+002,  2.511269E+002,  0.000000E+000, -9.377553E+001, -4.368472E-001, -1.751072E+000,  5.003992E-001
  2.311765E+002,  2.584447E+002,  0.000000E+000, -8.560848E+001, -4.075786E-001, -1.556894E+000,  5.004116E-001
  2.403091E+002,  2.657446E+002,  0.000000E+000, -7.683137E+001, -4.117995E-001, -1.412871E+000,  5.002624E-001
  2.498575E+002,  2.732587E+002,  0.000000E+000, -6.740601E+001, -4.292536E-001, -1.284058E+000,  5.004145E-001
  2.595583E+002,  2.810268E+002,  0.000000E+000, -5.715595E+001, -4.668825E-001, -1.211649E+000,  5.005755E-001
  2.688398E+002,  2.885091E+002,  0.000000E+000, -4.567297E+001, -5.039655E-001, -1.126831E+000,  5.002977E-001
  2.769729E+002,  2.950718E+002,  0.000000E+000, -3.308544E+001, -4.002709E-001, -9.506891E-001,  5.000906E-001
  2.818516E+002,  2.987450E+002,  0.000000E+000, -2.061702E+001, -2.177440E-001, -7.261516E-001,  5.006889E-001
  2.842662E+002,  3.005972E+002,  0.000000E+000, -7.391162E+000, -1.970254E-002, -5.371564E-001,  5.005415E-001
  2.836975E+002,  2.999819E+002,  0.000000E+000,  6.434020E+000,  3.636729E-002, -4.005621E-001,  5.002861E-001
  2.806672E+002,  2.974432E+002,  0.000000E+000,  1.935074E+001,  1.063452E-001, -3.442552E-001,  5.002814E-001
  2.755829E+002,  2.933672E+002,  0.000000E+000,  3.136128E+001,  1.335464E-001, -3.724724E-001,  5.001288E-001
  2.675363E+002,  2.865335E+002,  0.000000E+000,  4.363773E+001,  1.175851E-001, -3.914919E-001,  5.005647E-001
  2.583560E+002,  2.787307E+002,  0.000000E+000,  5.509061E+001,  1.117631E-001, -3.353167E-001,  5.005667E-001
  2.488103E+002,  2.704516E+002,  0.000000E+000,  6.552958E+001,  8.241648E-002, -2.284322E-001,  5.000407E-001
  2.394669E+002,  2.622306E+002,  0.000000E+000,  7.523316E+001,  3.167714E-002, -1.496087E-001,  5.008659E-001
  2.304616E+002,  2.540507E+002,  0.000000E+000,  8.433888E+001, -2.635480E-002, -1.024750E-001,  5.003450E-001
  2.219494E+002,  2.458598E+002,  0.000000E+000,  9.285641E+001, -1.252261E-001, -4.300439E-002,  5.006033E-001
  2.140282E+002,  2.375845E+002,  0.000000E+000,  1.005039E+002, -3.226801E-001,  7.212831E-002,  5.000403E-001
  1.401571E+002, -1.573144E+002,  0.000000E+000, -8.493222E+001, -1.157149E-001,  1.109382E+000,  5.002888E-001
  1.445904E+002, -1.620942E+002,  0.000000E+000, -8.081279E+001, -2.299837E-001,  1.289422E+000,  5.009212E-001
  1.488032E+002, -1.667355E+002,  0.000000E+000, -7.596987E+001, -3.187817E-001,  1.440983E+000,  5.002850E-001
  1.526214E+002, -1.714144E+002,  0.000000E+000, -6.965924E+001, -3.398923E-001,  1.475333E+000,  5.006808E-001
  1.563983E+002, -1.758423E+002,  0.000000E+000, -6.144823E+001, -3.667400E-001,  1.388730E+000,  5.009280E-001
  1.603393E+002, -1.798606E+002,  0.000000E+000, -5.162088E+001, -3.198923E-001,  1.268904E+000,  5.001121E-001
  1.642628E+002, -1.836375E+002,  0.000000E+000, -4.039893E+001, -1.830177E-001,  1.062357E+000,  5.003942E-001
  1.676263E+002, -1.871239E+002,  0.000000E+000, -2.834955E+001,  8.892164E-002,  8.454671E-001,  5.002524E-001
  1.699093E+002, -1.903950E+002,  0.000000E+000, -1.592481E+001,  4.419511E-001,  7.244599E-001,  5.008517E-001
  1.710612E+002, -1.927884E+002,  0.000000E+000, -3.597429E+000,  7.396690E-001,  8.457320E-001,  5.007672E-001
  1.715077E+002, -1.924323E+002,  0.000000E+000,  8.015422E+000,  9.449337E-001,  1.122914E+000,  5.009479E-001
  1.710217E+002, -1.904362E+002,  0.000000E+000,  1.941296E+001,  9.509732E-001,  1.336408E+000,  5.006084E-001
  1.691985E+002, -1.878997E+002,  0.000000E+000,  3.082847E+001,  8.859054E-001,  1.629862E+000,  5.001027E-001
  1.662857E+002, -1.849799E+002,  0.000000E+000,  4.189133E+001,  8.489556E-001,  1.865360E+000,  5.000507E-001
  1.630288E+002, -1.818226E+002,  0.000000E+000,  5.182032E+001,  7.488026E-001,  2.027525E+000,  5.002901E-001
  1.597148E+002, -1.781527E+002,  0.000000E+000,  6.036572E+001,  6.293306E-001,  2.102706E+000,  5.005138E-001
  1.562013E+002, -1.738278E+002,  0.000000E+000,  6.745369E+001,  5.346810E-001,  2.077590E+000,  5.004609E-001
  1.520303E+002, -1.692529E+002,  0.000000E+000,  7.309087E+001,  3.919583E-001,  1.959124E+000,  5.008611E-001
  1.472791E+002, -1.641169E+002,  0.000000E+000,  7.808997E+001,  2.501858E-001,  1.801122E+000,  5.005371E-001
  1.423327E+002, -1.585112E+002,  0.000000E+000,  8.283039E+001,  1.400126E-001,  1.618165E+000,  5.001917E-001
  1.541592E+002, -1.387220E+002,  0.000000E+000, -8.710842E+001, -2.239849E-001,  1.255650E+000,  5.006979E-001
  1.559205E+002, -1.391838E+002,  0.000000E+000,  8.551944E+001,  6.393358E-002,  1.690745E+000,  5.004098E-001
  1.686252E+002, -1.184489E+002,  0.000000E+000, -8.955834E+001, -3.573805E-001,  1.398553E+000,  5.000629E-001
  1.699063E+002, -1.182259E+002,  0.000000E+000,  8.845894E+001,  4.502817E-002,  1.708424E+000,  5.008705E-001
  1.832106E+002, -9.660797E+001,  0.000000E+000, -9.230243E+001, -5.308043E-001,  1.521655E+000,  5.002762E-001
  1.840433E+002, -9.572687E+001,  0.000000E+000,  9.168788E+001,  7.599553E-002,  1.684616E+000,  5.009041E-001
  1.976104E+002, -7.340794E+001,  0.000000E+000, -9.535938E+001, -6.968707E-001,  1.627161E+000,  5.005444E-001
  1.980328E+002, -7.189599E+001,  0.000000E+000,  9.523787E+001,  1.440005E-001,  1.624471E+000,  5.007576E-001
  2.113293E+002, -4.880779E+001,  0.000000E+000, -9.881333E+001, -8.436588E-001,  1.749737E+000,  5.001871E-001
  2.115516E+002, -4.717750E+001,  0.000000E+000,  9.903433E+001,  3.088849E-001,  1.530319E+000,  5.008658E-001
  2.226328E+002, -2.469331E+001,  0.000000E+000, -1.025931E+002, -9.610768E-001,  1.862122E+000,  5.002198E-001
  2.223400E+002, -2.341541E+001,  0.000000E+000,  1.031307E+002,  4.460522E-001,  1.443781E+000,  5.003983E-001
  2.304400E+002, -1.944686E+000,  0.000000E+000, -1.066118E+002, -1.036933E+000,  1.783587E+000,  5.002114E-001
  2.287527E+002, -1.611549E+000,  0.000000E+000,  1.075497E+002,  4.461909E-001,  1.298363E+000,  5.000257E-001
  2.355913E+002,  2.096649E+001,  0.000000E+000, -1.104340E+002, -1.124939E+000,  1.548746E+000,  5.005166E-001
  2.332172E+002,  2.121000E+001,  0.000000E+000,  1.117560E+002,  5.174569E-001,  1.001655E+000,  5.001595E-001
  2.349640E+002,  4.251306E+001,  0.000000E+000, -1.136494E+002, -7.910499E-001,  1.011934E+000,  5.000176E-001
  2.330139E+002,  4.334218E+001,  0.000000E+000,  1.154658E+002,  3.231260E-001,  6.636760E-001,  5.000329E-001
  2.340672E+002,  6.641896E+001,  0.000000E+000, -1.161600E+002, -5.656581E-001,  5.728955E-001,  5.001659E-001
  2.323525E+002,  6.794691E+001,  0.000000E+000,  1.184925E+002,  2.059178E-001,  4.921427E-001,  5.002319E-001
  2.331807E+002,  9.064826E+001,  0.000000E+000, -1.177397E+002, -6.109094E-001,  2.804501E-001,  5.007254E-001
  2.316776E+002,  9.132834E+001,  0.000000E+000,  1.200831E+002,  2.415867E-001,  4.491551E-001,  5.002324E-001
  2.322110E+002,  1.132317E+002,  0.000000E+000, -1.181484E+002, -5.517162E-001, -1.175169E-001,  5.009403E-001
  2.311386E+002,  1.122305E+002,  0.000000E+000,  1.201904E+002,  1.779710E-001,  3.701491E-001,  5.008860E-001
  2.310999E+002,  1.341332E+002,  0.000000E+000, -1.177873E+002, -4.052039E-001, -5.886516E-001,  5.002601E-001
  2.303386E+002,  1.320705E+002,  0.000000E+000,  1.195021E+002,  5.927885E-002,  2.335626E-001,  5.000675E-001
  2.303546E+002,  1.546168E+002,  0.000000E+000, -1.160809E+002, -2.530255E-001, -9.878082E-001,  5.006031E-001
  2.297691E+002,  1.517970E+002,  0.000000E+000,  1.174698E+002, -1.648356E-002,  1.833930E-001,  5.005221E-001
  2.302376E+002,  1.750108E+002,  0.000000E+000, -1.126172E+002, -1.152940E-001, -1.203461E+000,  5.003932E-001
  2.299468E+002,  1.719172E+002,  0.000000E+000,  1.135593E+002, -6.976644E-002,  2.078864E-001,  5.005299E-001
  2.299864E+002,  1.940826E+002,  0.000000E+000, -1.085808E+002, -5.172303E-002, -1.336597E+000,  5.002203E-001
  2.300344E+002,  1.907660E+002,  0.000000E+000,  1.091032E+002, -7.635750E-002,  1.893015E-001,  5.002608E-001
  2.293883E+002,  2.115597E+002,  0.000000E+000, -1.044361E+002, -1.113314E-001, -1.490987E+000,  5.001684E-001
  2.296865E+002,  2.079067E+002,  0.000000E+000,  1.045839E+002, -9.099883E-002,  1.407591E-001,  5.003178E-001
  2.283491E+002,  2.272485E+002,  0.000000E+000, -1.004468E+002, -2.228285E-001, -1.642191E+000,  5.003525E-001
  2.287035E+002,  2.228444E+002,  0.000000E+000,  1.003004E+002, -1.070946E-001,  9.366511E-002,  5.004081E-001
  2.266496E+002,  2.401970E+002,  0.000000E+000, -9.681751E+001, -3.420687E-001, -1.727179E+000,  5.000937E-001
  2.350737E+002,  2.476665E+002,  0.000000E+000, -8.913810E+001, -3.117476E-001, -1.419559E+000,  5.001185E-001
  2.438454E+002,  2.547441E+002,  0.000000E+000, -8.103478E+001, -2.560474E-001, -1.100941E+000,  5.001919E-001
  2.530260E+002,  2.617652E+002,  0.000000E+000, -7.245674E+001, -1.955997E-001, -7.809074E-001,  5.007987E-001
  2.625670E+002,  2.687694E+002,  0.000000E+000, -6.333616E+001, -1.716969E-001, -4.534519E-001,  5.000862E-001
  2.722898E+002,  2.758429E+002,  0.000000E+000, -5.346343E+001, -1.814227E-001, -1.417606E-001,  5.000225E-001
  2.816443E+002,  2.827342E+002,  0.000000E+000, -4.253152E+001, -2.094013E-001,  1.453646E-001,  5.002004E-001
  2.896425E+002,  2.886146E+002,  0.000000E+000, -3.073839E+001, -1.454640E-001,  4.843913E-001,  5.003359E-001
  2.943586E+002,  2.917709E+002,  0.000000E+000, -1.922490E+001, -2.878319E-002,  8.278482E-001,  5.004494E-001
  2.969012E+002,  2.934818E+002,  0.000000E+000, -6.892602E+000,  8.718213E-002,  1.072484E+000,  5.003508E-001
  2.964302E+002,  2.929615E+002,  0.000000E+000,  5.949706E+000,  8.326889E-002,  1.201249E+000,  5.006615E-001
  2.933976E+002,  2.905930E+002,  0.000000E+000,  1.804425E+001,  9.742893E-002,  1.191781E+000,  5.001645E-001
  2.885847E+002,  2.870064E+002,  0.000000E+000,  2.923752E+001,  9.055990E-002,  1.100635E+000,  5.001346E-001
  2.808384E+002,  2.808602E+002,  0.000000E+000,  4.077464E+001,  3.250992E-002,  9.539776E-001,  5.008508E-001
  2.717927E+002,  2.735750E+002,  0.000000E+000,  5.172969E+001,  1.609925E-002,  7.804121E-001,  5.000308E-001
  2.624248E+002,  2.659258E+002,  0.000000E+000,  6.185303E+001, -2.026131E-002,  6.363928E-001,  5.003468E-001
  2.530795E+002,  2.582211E+002,  0.000000E+000,  7.127304E+001, -5.293238E-002,  5.034240E-001,  5.008364E-001
  2.439965E+002,  2.503788E+002,  0.000000E+000,  8.020372E+001, -7.283750E-002,  3.611065E-001,  5.003828E-001
  2.352343E+002,  2.425734E+002,  0.000000E+000,  8.861129E+001, -9.904715E-002,  2.082504E-001,  5.006748E-001
  2.268491E+002,  2.347614E+002,  0.000000E+000,  9.646865E+001, -1.334442E-001,  6.170688E-002,  5.006677E-001
  1.596363E+002, -1.432785E+002,  0.000000E+000, -8.290310E+001, -3.429308E-001,  1.467690E+000,  5.002452E-001
  1.645896E+002, -1.470723E+002,  0.000000E+000, -7.876303E+001, -4.588849E-001,  1.644937E+000,  5.007345E-001
  1.695196E+002, -1.505561E+002,  0.000000E+000, -7.375027E+001, -5.331297E-001,  1.786389E+000,  5.005681E-001
  1.742401E+002, -1.538505E+002,  0.000000E+000, -6.710177E+001, -5.589528E-001,  1.802140E+000,  5.000402E-001
  1.786958E+002, -1.571006E+002,  0.000000E+000, -5.876223E+001, -5.699140E-001,  1.727361E+000,  5.008718E-001
  1.828940E+002, -1.603142E+002,  0.000000E+000, -4.903233E+001, -5.098298E-001,  1.613217E+000,  5.001543E-001
  1.868107E+002, -1.633939E+002,  0.000000E+000, -3.821165E+001, -3.289231E-001,  1.413955E+000,  5.007594E-001
  1.899133E+002, -1.662936E+002,  0.000000E+000, -2.684920E+001,  3.744495E-002,  1.196798E+000,  5.004406E-001
  1.919933E+002, -1.690456E+002,  0.000000E+000, -1.519164E+001,  4.146904E-001,  1.061945E+000,  5.010636E-001
  1.930287E+002, -1.710403E+002,  0.000000E+000, -3.387917E+000,  7.230996E-001,  1.140242E+000,  5.000350E-001
  1.934232E+002, -1.708055E+002,  0.000000E+000,  8.027424E+000,  9.902660E-001,  1.411462E+000,  5.009919E-001
  1.931819E+002, -1.690828E+002,  0.000000E+000,  1.875411E+001,  1.098173E+000,  1.662611E+000,  5.003591E-001
  1.916797E+002, -1.669642E+002,  0.000000E+000,  2.943752E+001,  1.039626E+000,  1.947442E+000,  5.008087E-001
  1.889158E+002, -1.646200E+002,  0.000000E+000,  3.989441E+001,  9.662470E-001,  2.173983E+000,  5.000725E-001
  1.854885E+002, -1.622040E+002,  0.000000E+000,  4.954911E+001,  8.434950E-001,  2.328135E+000,  5.002307E-001
  1.816501E+002, -1.596323E+002,  0.000000E+000,  5.804308E+001,  7.106718E-001,  2.391333E+000,  5.000953E-001
  1.772901E+002, -1.567732E+002,  0.000000E+000,  6.527428E+001,  5.850787E-001,  2.365314E+000,  5.001325E-001
  1.724737E+002, -1.535197E+002,  0.000000E+000,  7.097078E+001,  4.400519E-001,  2.246838E+000,  5.008487E-001
  1.672890E+002, -1.494695E+002,  0.000000E+000,  7.590762E+001,  2.823045E-001,  2.092762E+000,  5.004076E-001
  1.619910E+002, -1.448853E+002,  0.000000E+000,  8.053884E+001,  1.561391E-001,  1.904878E+000,  5.001361E-001
  1.737023E+002, -1.251385E+002,  0.000000E+000, -8.486413E+001, -4.395021E-001,  1.632784E+000,  5.004101E-001
  1.796467E+002, -1.286786E+002,  0.000000E+000, -8.064603E+001, -5.655027E-001,  1.830874E+000,  5.007014E-001
  1.857899E+002, -1.317226E+002,  0.000000E+000, -7.571663E+001, -6.962479E-001,  2.021303E+000,  5.004923E-001
  1.920394E+002, -1.341994E+002,  0.000000E+000, -6.942906E+001, -7.617296E-001,  2.145950E+000,  5.000129E-001
  1.979222E+002, -1.365916E+002,  0.000000E+000, -6.131295E+001, -7.937332E-001,  2.121866E+000,  5.009181E-001
  2.030053E+002, -1.393186E+002,  0.000000E+000, -5.152373E+001, -7.419045E-001,  2.027373E+000,  5.008340E-001
  2.074482E+002, -1.421666E+002,  0.000000E+000, -4.036168E+001, -5.497174E-001,  1.835380E+000,  5.006930E-001
  2.108384E+002, -1.449322E+002,  0.000000E+000, -2.858773E+001, -1.358947E-001,  1.599825E+000,  5.010145E-001
  2.129852E+002, -1.476612E+002,  0.000000E+000, -1.645891E+001,  3.023356E-001,  1.423612E+000,  5.009786E-001
  2.141435E+002, -1.496353E+002,  0.000000E+000, -3.847241E+000,  7.386577E-001,  1.449664E+000,  5.007384E-001
  2.145321E+002, -1.495541E+002,  0.000000E+000,  8.637038E+000,  1.145478E+000,  1.721959E+000,  5.010893E-001
  2.143052E+002, -1.478554E+002,  0.000000E+000,  1.994938E+001,  1.335108E+000,  2.019560E+000,  5.004979E-001
  2.128189E+002, -1.456968E+002,  0.000000E+000,  3.105124E+001,  1.271662E+000,  2.324915E+000,  5.005041E-001
  2.098306E+002, -1.435116E+002,  0.000000E+000,  4.181337E+001,  1.107408E+000,  2.552709E+000,  5.002035E-001
  2.057336E+002, -1.415034E+002,  0.000000E+000,  5.162636E+001,  9.125447E-001,  2.666971E+000,  5.003297E-001
  2.005919E+002, -1.396831E+002,  0.000000E+000,  6.008902E+001,  7.329258E-001,  2.669270E+000,  5.005510E-001
  1.945775E+002, -1.376692E+002,  0.000000E+000,  6.715969E+001,  5.663288E-001,  2.568246E+000,  5.000160E-001
  1.883387E+002, -1.347082E+002,  0.000000E+000,  7.295669E+001,  3.772793E-001,  2.402761E+000,  5.002286E-001
  1.820380E+002, -1.307610E+002,  0.000000E+000,  7.809845E+001,  2.230688E-001,  2.200106E+000,  5.004711E-001
  1.756737E+002, -1.261520E+002,  0.000000E+000,  8.295074E+001,  1.157107E-001,  1.970558E+000,  5.009770E-001
  1.880485E+002, -1.057138E+002,  0.000000E+000, -8.703733E+001, -5.522524E-001,  1.798867E+000,  5.004543E-001
  1.950971E+002, -1.090533E+002,  0.000000E+000, -8.263292E+001, -6.774233E-001,  2.029122E+000,  5.004751E-001
  2.024233E+002, -1.117684E+002,  0.000000E+000, -7.759806E+001, -8.248147E-001,  2.244852E+000,  5.008442E-001
  2.099508E+002, -1.138307E+002,  0.000000E+000, -7.144241E+001, -9.504266E-001,  2.448260E+000,  5.008258E-001
  2.172002E+002, -1.155153E+002,  0.000000E+000, -6.358086E+001, -1.002576E+000,  2.529789E+000,  5.000645E-001
  2.238505E+002, -1.171141E+002,  0.000000E+000, -5.399903E+001, -9.912713E-001,  2.487051E+000,  5.004309E-001
  2.292044E+002, -1.193190E+002,  0.000000E+000, -4.274546E+001, -8.283060E-001,  2.320121E+000,  5.000755E-001
  2.327805E+002, -1.220185E+002,  0.000000E+000, -3.060723E+001, -3.841209E-001,  2.079668E+000,  5.001069E-001
  2.347669E+002, -1.248724E+002,  0.000000E+000, -1.793013E+001,  1.963970E-001,  1.905006E+000,  5.001268E-001
  2.359387E+002, -1.268623E+002,  0.000000E+000, -4.388538E+000,  8.010574E-001,  1.873908E+000,  5.000373E-001
  2.364161E+002, -1.269249E+002,  0.000000E+000,  9.279790E+000,  1.341701E+000,  2.104232E+000,  5.005970E-001
  2.362015E+002, -1.253266E+002,  0.000000E+000,  2.134091E+001,  1.672260E+000,  2.405741E+000,  5.007118E-001
  2.347545E+002, -1.230523E+002,  0.000000E+000,  3.293529E+001,  1.648928E+000,  2.727793E+000,  5.002217E-001
  2.314574E+002, -1.211757E+002,  0.000000E+000,  4.381079E+001,  1.378559E+000,  2.941134E+000,  5.004038E-001
  2.260820E+002, -1.201561E+002,  0.000000E+000,  5.349003E+001,  1.065650E+000,  2.981480E+000,  5.004327E-001
  2.195720E+002, -1.190635E+002,  0.000000E+000,  6.191472E+001,  7.968160E-001,  2.908547E+000,  5.002189E-001
  2.123691E+002, -1.173463E+002,  0.000000E+000,  6.899679E+001,  5.637189E-001,  2.739126E+000,  5.010221E-001
  2.047459E+002, -1.144337E+002,  0.000000E+000,  7.510233E+001,  3.579958E-001,  2.524074E+000,  5.005406E-001
  1.971974E+002, -1.105114E+002,  0.000000E+000,  8.053524E+001,  2.076276E-001,  2.273618E+000,  5.006582E-001
  1.896250E+002, -1.059844E+002,  0.000000E+000,  8.560555E+001,  1.187087E-001,  1.990003E+000,  5.009571E-001
  2.022805E+002, -8.510464E+001,  0.000000E+000, -8.946507E+001, -7.028113E-001,  1.933332E+000,  5.003977E-001
  2.104830E+002, -8.844580E+001,  0.000000E+000, -8.479786E+001, -7.891457E-001,  2.224486E+000,  5.007922E-001
  2.187791E+002, -9.103051E+001,  0.000000E+000, -7.956419E+001, -9.530674E-001,  2.466778E+000,  5.000757E-001
  2.273036E+002, -9.302363E+001,  0.000000E+000, -7.342316E+001, -1.118239E+000,  2.714360E+000,  5.010007E-001
  2.351954E+002, -9.490470E+001,  0.000000E+000, -6.577045E+001, -1.200193E+000,  2.903986E+000,  5.009002E-001
  2.421616E+002, -9.661053E+001,  0.000000E+000, -5.622674E+001, -1.202966E+000,  2.953774E+000,  5.008763E-001
  2.482002E+002, -9.830536E+001,  0.000000E+000, -4.507195E+001, -1.031264E+000,  2.893615E+000,  5.003350E-001
  2.522452E+002, -1.006950E+002,  0.000000E+000, -3.289997E+001, -5.126896E-001,  2.702452E+000,  5.002795E-001
  2.540750E+002, -1.036499E+002,  0.000000E+000, -1.968016E+001,  2.312060E-001,  2.480739E+000,  5.006143E-001
  2.546257E+002, -1.059956E+002,  0.000000E+000, -5.089304E+000,  8.741275E-001,  2.347719E+000,  5.002340E-001
  2.544968E+002, -1.069624E+002,  0.000000E+000,  9.871512E+000,  1.425936E+000,  2.454089E+000,  5.000882E-001
  2.545625E+002, -1.053646E+002,  0.000000E+000,  2.296592E+001,  1.949097E+000,  2.804673E+000,  5.009382E-001
  2.530294E+002, -1.030843E+002,  0.000000E+000,  3.489042E+001,  2.010419E+000,  3.147564E+000,  5.002463E-001
  2.490123E+002, -1.018493E+002,  0.000000E+000,  4.562210E+001,  1.663754E+000,  3.232784E+000,  5.008410E-001
  2.435513E+002, -1.006492E+002,  0.000000E+000,  5.529790E+001,  1.269254E+000,  3.173081E+000,  5.005213E-001
  2.370612E+002, -9.886436E+001,  0.000000E+000,  6.377879E+001,  9.544556E-001,  3.037734E+000,  5.009754E-001
  2.291364E+002, -9.649970E+001,  0.000000E+000,  7.105416E+001,  6.839238E-001,  2.829171E+000,  5.001938E-001
  2.206104E+002, -9.325943E+001,  0.000000E+000,  7.752371E+001,  4.587013E-001,  2.586398E+000,  5.002977E-001
  2.120893E+002, -8.907084E+001,  0.000000E+000,  8.326488E+001,  3.012675E-001,  2.277382E+000,  5.000183E-001
  2.035086E+002, -8.464637E+001,  0.000000E+000,  8.849272E+001,  1.853619E-001,  1.960056E+000,  5.007279E-001
  2.160124E+002, -6.334277E+001,  0.000000E+000, -9.222283E+001, -8.964572E-001,  2.050369E+000,  5.002515E-001
  2.249406E+002, -6.690894E+001,  0.000000E+000, -8.734496E+001, -9.688468E-001,  2.388911E+000,  5.006043E-001
  2.332046E+002, -7.046346E+001,  0.000000E+000, -8.184359E+001, -1.039914E+000,  2.673687E+000,  5.009864E-001
  2.410578E+002, -7.371000E+001,  0.000000E+000, -7.567116E+001, -1.143378E+000,  2.887095E+000,  5.000635E-001
  2.487003E+002, -7.686183E+001,  0.000000E+000, -6.823255E+001, -1.174953E+000,  3.124225E+000,  5.008242E-001
  2.557184E+002, -7.968727E+001,  0.000000E+000, -5.855455E+001, -1.109008E+000,  3.294543E+000,  5.008576E-001
  2.615686E+002, -8.189359E+001,  0.000000E+000, -4.726012E+001, -9.189427E-001,  3.386749E+000,  5.010994E-001
  2.655832E+002, -8.437820E+001,  0.000000E+000, -3.496598E+001, -4.439216E-001,  3.385734E+000,  5.008539E-001
  2.674253E+002, -8.704374E+001,  0.000000E+000, -2.161504E+001,  1.571480E-001,  3.195650E+000,  5.003562E-001
  2.681576E+002, -8.882132E+001,  0.000000E+000, -6.069036E+000,  8.258737E-001,  2.984912E+000,  5.004212E-001
  2.677756E+002, -9.033168E+001,  0.000000E+000,  1.003609E+001,  1.530901E+000,  3.048124E+000,  5.006785E-001
  2.667530E+002, -9.028840E+001,  0.000000E+000,  2.447458E+001,  2.135126E+000,  3.337672E+000,  5.005266E-001
  2.648007E+002, -8.870186E+001,  0.000000E+000,  3.646111E+001,  2.176381E+000,  3.432154E+000,  5.002250E-001
  2.611403E+002, -8.707953E+001,  0.000000E+000,  4.731209E+001,  1.732067E+000,  3.307138E+000,  5.005471E-001
  2.556080E+002, -8.510282E+001,  0.000000E+000,  5.735366E+001,  1.328792E+000,  3.140075E+000,  5.010386E-001
  2.487974E+002, -8.179413E+001,  0.000000E+000,  6.619759E+001,  1.017204E+000,  2.966567E+000,  5.009234E-001
  2.415558E+002, -7.727621E+001,  0.000000E+000,  7.371804E+001,  7.850969E-001,  2.793363E+000,  5.007500E-001
  2.341559E+002, -7.196124E+001,  0.000000E+000,  8.048067E+001,  6.056501E-001,  2.559703E+000,  5.009322E-001
  2.260493E+002, -6.684305E+001,  0.000000E+000,  8.635010E+001,  4.464754E-001,  2.235374E+000,  5.008272E-001
  2.167812E+002, -6.233228E+001,  0.000000E+000,  9.172156E+001,  3.154387E-001,  1.878879E+000,  5.002408E-001
  2.275421E+002, -4.163706E+001,  0.000000E+000, -9.541235E+001, -1.005787E+000,  2.163657E+000,  5.006989E-001
  2.360616E+002, -4.607101E+001,  0.000000E+000, -9.044271E+001, -1.066916E+000,  2.475490E+000,  5.007448E-001
  2.444381E+002, -5.034657E+001,  0.000000E+000, -8.474785E+001, -1.078621E+000,  2.795680E+000,  5.008869E-001
  2.524865E+002, -5.435684E+001,  0.000000E+000, -7.842140E+001, -1.035335E+000,  3.076222E+000,  5.000992E-001
  2.602946E+002, -5.827048E+001,  0.000000E+000, -7.112795E+001, -9.338243E-001,  3.330270E+000,  5.007949E-001
  2.675648E+002, -6.237596E+001,  0.000000E+000, -6.147524E+001, -7.732120E-001,  3.608297E+000,  5.001388E-001
  2.725635E+002, -6.653834E+001,  0.000000E+000, -5.000822E+001, -6.643523E-001,  3.800922E+000,  5.009614E-001
  2.751668E+002, -7.042776E+001,  0.000000E+000, -3.747508E+001, -4.162097E-001,  3.910263E+000,  5.007890E-001
  2.778249E+002, -7.233364E+001,  0.000000E+000, -2.290152E+001,  1.043481E-001,  4.024123E+000,  5.010314E-001
  2.799713E+002, -7.264764E+001,  0.000000E+000, -6.850390E+000,  7.857388E-001,  4.124786E+000,  5.002711E-001
  2.791037E+002, -7.459942E+001,  0.000000E+000,  9.433055E+000,  1.611023E+000,  4.064656E+000,  5.002902E-001
  2.763476E+002, -7.683719E+001,  0.000000E+000,  2.536100E+001,  2.188380E+000,  3.882954E+000,  5.001615E-001
  2.742670E+002, -7.562985E+001,  0.000000E+000,  3.839857E+001,  2.147590E+000,  3.631881E+000,  5.009775E-001
  2.715651E+002, -7.252141E+001,  0.000000E+000,  4.961328E+001,  1.630534E+000,  3.334620E+000,  5.010921E-001
  2.662348E+002, -6.828792E+001,  0.000000E+000,  6.019745E+001,  1.293200E+000,  3.059696E+000,  5.005514E-001
  2.592268E+002, -6.306678E+001,  0.000000E+000,  6.931175E+001,  1.097708E+000,  2.842630E+000,  5.005934E-001
  2.514477E+002, -5.761171E+001,  0.000000E+000,  7.713032E+001,  8.819041E-001,  2.640610E+000,  5.007887E-001
  2.434809E+002, -5.209405E+001,  0.000000E+000,  8.409225E+001,  6.943383E-001,  2.357861E+000,  5.005517E-001
  2.356533E+002, -4.630229E+001,  0.000000E+000,  9.002775E+001,  5.561528E-001,  2.047335E+000,  5.007815E-001
  2.275611E+002, -4.058930E+001,  0.000000E+000,  9.536473E+001,  4.763599E-001,  1.738537E+000,  5.001891E-001
  2.359212E+002, -2.081566E+001,  0.000000E+000, -9.902801E+001, -9.980009E-001,  2.232075E+000,  5.004305E-001
  2.450321E+002, -2.520207E+001,  0.000000E+000, -9.391812E+001, -1.021939E+000,  2.585592E+000,  5.008362E-001
  2.539383E+002, -2.950222E+001,  0.000000E+000, -8.812171E+001, -9.984401E-001,  2.916734E+000,  5.000668E-001
  2.623898E+002, -3.397840E+001,  0.000000E+000, -8.163959E+001, -8.255984E-001,  3.271448E+000,  5.004156E-001
  2.699807E+002, -3.875301E+001,  0.000000E+000, -7.446156E+001, -6.173131E-001,  3.599603E+000,  5.002980E-001
  2.761243E+002, -4.483532E+001,  0.000000E+000, -6.555053E+001, -4.828061E-001,  3.845683E+000,  5.008880E-001
  2.805676E+002, -5.172850E+001,  0.000000E+000, -5.390017E+001, -4.099510E-001,  4.123917E+000,  5.009969E-001
  2.839109E+002, -5.625625E+001,  0.000000E+000, -4.013130E+001, -2.368113E-001,  4.564501E+000,  5.011390E-001
  2.875095E+002, -5.741956E+001,  0.000000E+000, -2.394178E+001,  2.756918E-001,  4.979886E+000,  5.006702E-001
  2.896272E+002, -5.803922E+001,  0.000000E+000, -7.522977E+000,  8.919602E-001,  5.261305E+000,  5.001826E-001
  2.889854E+002, -5.968059E+001,  0.000000E+000,  8.571648E+000,  1.489108E+000,  5.097492E+000,  5.000615E-001
  2.859839E+002, -6.229133E+001,  0.000000E+000,  2.550381E+001,  1.964128E+000,  4.535574E+000,  5.008099E-001
  2.827108E+002, -6.244745E+001,  0.000000E+000,  4.072401E+001,  1.899954E+000,  3.884971E+000,  5.007191E-001
  2.792704E+002, -5.748187E+001,  0.000000E+000,  5.328167E+001,  1.446868E+000,  3.383615E+000,  5.006125E-001
  2.743514E+002, -4.988985E+001,  0.000000E+000,  6.420919E+001,  1.244119E+000,  3.014037E+000,  5.005655E-001
  2.678551E+002, -4.287139E+001,  0.000000E+000,  7.316703E+001,  1.140056E+000,  2.705611E+000,  5.007166E-001
  2.604135E+002, -3.668113E+001,  0.000000E+000,  8.097830E+001,  9.972936E-001,  2.389573E+000,  5.003425E-001
  2.520317E+002, -3.117115E+001,  0.000000E+000,  8.797245E+001,  7.896120E-001,  2.075628E+000,  5.007718E-001
  2.432448E+002, -2.593169E+001,  0.000000E+000,  9.402903E+001,  6.316283E-001,  1.769760E+000,  5.009737E-001
  2.344405E+002, -2.081834E+001,  0.000000E+000,  9.942366E+001,  5.310210E-001,  1.571779E+000,  5.007247E-001
  2.426822E+002,  1.695267E-001,  0.000000E+000, -1.026565E+002, -9.946406E-001,  2.143732E+000,  5.001576E-001
  2.520244E+002, -3.745961E+000,  0.000000E+000, -9.758272E+001, -9.245304E-001,  2.582622E+000,  5.008384E-001
  2.603641E+002, -8.651405E+000,  0.000000E+000, -9.189602E+001, -7.685962E-001,  3.061139E+000,  5.010114E-001
  2.678530E+002, -1.454100E+001,  0.000000E+000, -8.547450E+001, -6.164062E-001,  3.479761E+000,  5.001646E-001
  2.750489E+002, -2.070544E+001,  0.000000E+000, -7.829453E+001, -4.338464E-001,  3.829159E+000,  5.000396E-001
  2.818618E+002, -2.691599E+001,  0.000000E+000, -7.005699E+001, -2.440748E-001,  4.170175E+000,  5.004271E-001
  2.873771E+002, -3.426792E+001,  0.000000E+000, -5.861421E+001,  3.792045E-002,  4.643340E+000,  5.002673E-001
  2.923838E+002, -3.955777E+001,  0.000000E+000, -4.276901E+001,  4.248045E-001,  5.199616E+000,  5.010636E-001
  2.964354E+002, -4.200253E+001,  0.000000E+000, -2.521963E+001,  7.144969E-001,  5.720914E+000,  5.004391E-001
  2.981612E+002, -4.353685E+001,  0.000000E+000, -8.377666E+000,  1.054586E+000,  5.899408E+000,  5.003542E-001
  2.978332E+002, -4.503909E+001,  0.000000E+000,  7.998811E+000,  1.297417E+000,  5.624388E+000,  5.001676E-001
  2.951806E+002, -4.668742E+001,  0.000000E+000,  2.548991E+001,  1.350845E+000,  4.967286E+000,  5.006765E-001
  2.904927E+002, -4.580363E+001,  0.000000E+000,  4.338578E+001,  1.262300E+000,  4.238965E+000,  5.002117E-001
  2.853083E+002, -3.936011E+001,  0.000000E+000,  5.814117E+001,  1.238731E+000,  3.537337E+000,  5.006424E-001
  2.792747E+002, -3.128441E+001,  0.000000E+000,  6.883012E+001,  1.160650E+000,  3.068341E+000,  5.001088E-001
  2.724664E+002, -2.390586E+001,  0.000000E+000,  7.757339E+001,  1.114736E+000,  2.603531E+000,  5.010082E-001
  2.652716E+002, -1.678439E+001,  0.000000E+000,  8.534309E+001,  1.022532E+000,  2.143596E+000,  5.004359E-001
  2.576863E+002, -1.030430E+001,  0.000000E+000,  9.211181E+001,  8.970927E-001,  1.778392E+000,  5.003170E-001
  2.493857E+002, -4.786648E+000,  0.000000E+000,  9.807795E+001,  7.647746E-001,  1.536255E+000,  5.001126E-001
  2.403817E+002, -1.897643E-001,  0.000000E+000,  1.034227E+002,  5.870103E-001,  1.393138E+000,  5.004911E-001
  2.442178E+002,  1.930041E+001,  0.000000E+000, -1.062509E+002, -9.253075E-001,  1.925416E+000,  5.003197E-001
  2.519224E+002,  1.403334E+001,  0.000000E+000, -1.013195E+002, -7.587050E-001,  2.383202E+000,  5.007595E-001
  2.599324E+002,  8.373358E+000,  0.000000E+000, -9.566937E+001, -5.843502E-001,  2.923475E+000,  5.002717E-001
  2.681183E+002,  2.383754E+000,  0.000000E+000, -8.925010E+001, -3.818252E-001,  3.535074E+000,  5.003029E-001
  2.763478E+002, -3.713464E+000,  0.000000E+000, -8.196155E+001, -1.411855E-001,  4.192382E+000,  5.001608E-001
  2.845418E+002, -9.545024E+000,  0.000000E+000, -7.360222E+001,  9.594820E-002,  4.757623E+000,  5.004358E-001
  2.929631E+002, -1.318626E+001,  0.000000E+000, -6.230573E+001,  3.892623E-001,  5.283858E+000,  5.009725E-001
  2.995444E+002, -1.694297E+001,  0.000000E+000, -4.577247E+001,  8.691262E-001,  5.720046E+000,  5.006551E-001
  3.040947E+002, -2.087900E+001,  0.000000E+000, -2.743192E+001,  1.191355E+000,  5.877064E+000,  5.001699E-001
  3.057423E+002, -2.504941E+001,  0.000000E+000, -9.805524E+000,  1.205857E+000,  5.664555E+000,  5.004529E-001
  3.055096E+002, -2.568471E+001,  0.000000E+000,  8.155643E+000,  9.833488E-001,  5.379614E+000,  5.006548E-001
  3.028023E+002, -2.352592E+001,  0.000000E+000,  2.669675E+001,  8.678944E-001,  5.003611E+000,  5.006170E-001
  2.971105E+002, -2.113784E+001,  0.000000E+000,  4.557538E+001,  9.222528E-001,  4.443565E+000,  5.002744E-001
  2.891979E+002, -1.903152E+001,  0.000000E+000,  6.170592E+001,  1.025613E+000,  3.807395E+000,  5.005062E-001
  2.808308E+002, -1.398874E+001,  0.000000E+000,  7.295006E+001,  1.059679E+000,  3.180804E+000,  5.002493E-001
  2.729799E+002, -6.892600E+000,  0.000000E+000,  8.177856E+001,  1.054552E+000,  2.522234E+000,  5.000587E-001
  2.649726E+002,  6.683201E-002,  0.000000E+000,  8.942289E+001,  9.805231E-001,  1.961925E+000,  5.006364E-001
  2.569967E+002,  6.891776E+000,  0.000000E+000,  9.615089E+001,  8.439569E-001,  1.583764E+000,  5.000958E-001
  2.493070E+002,  1.330863E+001,  0.000000E+000,  1.020751E+002,  7.066708E-001,  1.307230E+000,  5.007322E-001
  2.418633E+002,  1.914809E+001,  0.000000E+000,  1.072909E+002,  5.882654E-001,  1.121857E+000,  5.002394E-001
  2.428727E+002,  3.918025E+001,  0.000000E+000, -1.092234E+002, -5.636901E-001,  1.350164E+000,  5.003732E-001
  2.503829E+002,  3.445813E+001,  0.000000E+000, -1.044640E+002, -3.623193E-001,  1.760415E+000,  5.003076E-001
  2.583443E+002,  2.909628E+001,  0.000000E+000, -9.898148E+001, -1.797275E-001,  2.259316E+000,  5.006630E-001
  2.666954E+002,  2.317948E+001,  0.000000E+000, -9.266882E+001,  2.080897E-003,  2.922898E+000,  5.005138E-001
  2.755400E+002,  1.694056E+001,  0.000000E+000, -8.530401E+001,  1.722765E-001,  3.712910E+000,  5.008347E-001
  2.856108E+002,  1.308549E+001,  0.000000E+000, -7.545575E+001,  3.110069E-001,  4.570599E+000,  5.003919E-001
  2.963464E+002,  1.319862E+001,  0.000000E+000, -6.288953E+001,  4.627626E-001,  5.298957E+000,  5.005506E-001
  3.053313E+002,  1.526340E+001,  0.000000E+000, -4.709024E+001,  6.427138E-001,  5.603730E+000,  5.006532E-001
  3.099730E+002,  1.563643E+001,  0.000000E+000, -2.856612E+001,  8.018320E-001,  5.636692E+000,  5.005554E-001
  3.113861E+002,  1.529015E+001,  0.000000E+000, -1.027110E+001,  8.951703E-001,  5.469085E+000,  5.006736E-001
  3.109726E+002,  1.506527E+001,  0.000000E+000,  8.215290E+000,  9.603871E-001,  5.177156E+000,  5.003994E-001
  3.084908E+002,  1.462828E+001,  0.000000E+000,  2.692263E+001,  1.030357E+000,  4.739474E+000,  5.002920E-001
  3.020392E+002,  1.294307E+001,  0.000000E+000,  4.576918E+001,  1.036606E+000,  4.193261E+000,  5.007765E-001
  2.921842E+002,  1.047842E+001,  0.000000E+000,  6.177705E+001,  1.029833E+000,  3.564200E+000,  5.006984E-001
  2.815176E+002,  1.024545E+001,  0.000000E+000,  7.570264E+001,  9.883015E-001,  2.831954E+000,  5.007579E-001
  2.720652E+002,  1.527096E+001,  0.000000E+000,  8.569092E+001,  8.433683E-001,  2.172481E+000,  5.002683E-001
  2.636858E+002,  2.209167E+001,  0.000000E+000,  9.328738E+001,  6.991865E-001,  1.604349E+000,  5.006372E-001
  2.556768E+002,  2.846752E+001,  0.000000E+000,  9.987820E+001,  5.559235E-001,  1.221848E+000,  5.004153E-001
  2.480879E+002,  3.430167E+001,  0.000000E+000,  1.056537E+002,  4.344011E-001,  9.417704E-001,  5.005180E-001
  2.408510E+002,  3.953312E+001,  0.000000E+000,  1.107153E+002,  3.497168E-001,  7.738491E-001,  5.001938E-001
  2.418375E+002,  6.212927E+001,  0.000000E+000, -1.116936E+002, -3.287051E-001,  9.745550E-001,  5.006744E-001
  2.492393E+002,  5.896773E+001,  0.000000E+000, -1.071117E+002, -1.219248E-001,  1.405968E+000,  5.000245E-001
  2.570612E+002,  5.534513E+001,  0.000000E+000, -1.017996E+002,  8.467467E-002,  1.935543E+000,  5.001373E-001
  2.654327E+002,  5.147687E+001,  0.000000E+000, -9.546791E+001,  3.410553E-001,  2.619091E+000,  5.005036E-001
  2.754397E+002,  5.047710E+001,  0.000000E+000, -8.625110E+001,  6.349313E-001,  3.410708E+000,  5.002981E-001
  2.865292E+002,  5.240095E+001,  0.000000E+000, -7.438521E+001,  8.038138E-001,  4.190910E+000,  5.007621E-001
  2.977572E+002,  5.530074E+001,  0.000000E+000, -6.078842E+001,  7.188038E-001,  4.883014E+000,  5.009218E-001
  3.080138E+002,  5.863272E+001,  0.000000E+000, -4.539618E+001,  5.135723E-001,  5.396185E+000,  5.002944E-001
  3.133366E+002,  6.076466E+001,  0.000000E+000, -2.804717E+001,  5.791200E-001,  5.449074E+000,  5.007884E-001
  3.146050E+002,  6.132462E+001,  0.000000E+000, -1.013410E+001,  7.401329E-001,  5.287181E+000,  5.002318E-001
  3.141720E+002,  6.125318E+001,  0.000000E+000,  8.021289E+000,  9.010451E-001,  4.999354E+000,  5.003385E-001
  3.116384E+002,  6.029859E+001,  0.000000E+000,  2.606292E+001,  1.020131E+000,  4.580153E+000,  5.007104E-001
  3.041759E+002,  5.724399E+001,  0.000000E+000,  4.373073E+001,  1.050561E+000,  4.022580E+000,  5.006261E-001
  2.938355E+002,  5.401986E+001,  0.000000E+000,  5.985625E+001,  8.579783E-001,  3.371020E+000,  5.000549E-001
  2.828875E+002,  5.114252E+001,  0.000000E+000,  7.430330E+001,  6.323933E-001,  2.701335E+000,  5.000111E-001
  2.720062E+002,  4.883488E+001,  0.000000E+000,  8.703866E+001,  5.407671E-001,  2.023850E+000,  5.006254E-001
  2.624606E+002,  5.037701E+001,  0.000000E+000,  9.647811E+001,  4.011936E-001,  1.472487E+000,  5.004820E-001
  2.544882E+002,  5.492247E+001,  0.000000E+000,  1.031012E+002,  3.004476E-001,  1.080908E+000,  5.007665E-001
  2.469961E+002,  5.922999E+001,  0.000000E+000,  1.087569E+002,  2.203228E-001,  7.932853E-001,  5.000470E-001
  2.399139E+002,  6.305404E+001,  0.000000E+000,  1.136604E+002,  1.896148E-001,  6.069380E-001,  5.001208E-001
  2.408738E+002,  8.601547E+001,  0.000000E+000, -1.134694E+002, -2.356803E-001,  7.610528E-001,  5.006106E-001
  2.481114E+002,  8.484614E+001,  0.000000E+000, -1.090363E+002,  1.256519E-001,  1.187812E+000,  5.000318E-001
  2.558307E+002,  8.337379E+001,  0.000000E+000, -1.036918E+002,  4.897652E-001,  1.763859E+000,  5.001051E-001
  2.655601E+002,  8.540939E+001,  0.000000E+000, -9.511330E+001,  8.327687E-001,  2.486119E+000,  5.005402E-001
  2.761979E+002,  8.935170E+001,  0.000000E+000, -8.435988E+001,  1.072397E+000,  3.215826E+000,  5.005692E-001
  2.871497E+002,  9.379628E+001,  0.000000E+000, -7.218594E+001,  1.123391E+000,  3.910152E+000,  5.006246E-001
  2.982610E+002,  9.857325E+001,  0.000000E+000, -5.861265E+001,  9.630006E-001,  4.542246E+000,  5.005878E-001
  3.087590E+002,  1.033607E+002,  0.000000E+000, -4.343601E+001,  7.478589E-001,  5.121468E+000,  5.005994E-001
  3.147395E+002,  1.065569E+002,  0.000000E+000, -2.700387E+001,  6.323663E-001,  5.341988E+000,  5.006372E-001
  3.163062E+002,  1.076692E+002,  0.000000E+000, -9.780704E+000,  6.897899E-001,  5.191716E+000,  5.002334E-001
  3.158262E+002,  1.076596E+002,  0.000000E+000,  7.794283E+000,  7.891845E-001,  4.916572E+000,  5.006761E-001
  3.127715E+002,  1.060771E+002,  0.000000E+000,  2.480355E+001,  8.954559E-001,  4.510906E+000,  5.003179E-001
  3.050131E+002,  1.022578E+002,  0.000000E+000,  4.189749E+001,  8.226038E-001,  3.913623E+000,  5.005955E-001
  2.946735E+002,  9.778687E+001,  0.000000E+000,  5.786356E+001,  5.518884E-001,  3.285808E+000,  5.004111E-001
  2.838132E+002,  9.325585E+001,  0.000000E+000,  7.215791E+001,  2.864439E-001,  2.653782E+000,  5.002312E-001
  2.730665E+002,  8.892536E+001,  0.000000E+000,  8.498418E+001,  1.247095E-001,  2.028819E+000,  5.003974E-001
  2.626299E+002,  8.501153E+001,  0.000000E+000,  9.644923E+001,  9.542905E-002,  1.427372E+000,  5.002571E-001
  2.532671E+002,  8.344713E+001,  0.000000E+000,  1.054415E+002,  5.092738E-002,  1.022256E+000,  5.008270E-001
  2.458502E+002,  8.552261E+001,  0.000000E+000,  1.111517E+002,  5.823326E-002,  7.373412E-001,  5.000267E-001
  2.389585E+002,  8.710460E+001,  0.000000E+000,  1.158111E+002,  1.191529E-001,  5.491206E-001,  5.003970E-001
  2.398542E+002,  1.086863E+002,  0.000000E+000, -1.142138E+002, -1.432515E-001,  4.568230E-001,  5.008646E-001
  2.470566E+002,  1.098653E+002,  0.000000E+000, -1.098491E+002,  2.881140E-001,  9.579330E-001,  5.003721E-001
  2.562458E+002,  1.144715E+002,  0.000000E+000, -1.022030E+002,  7.362690E-001,  1.656769E+000,  5.002495E-001
  2.663478E+002,  1.205020E+002,  0.000000E+000, -9.260683E+001,  1.060380E+000,  2.392541E+000,  5.003983E-001
  2.767847E+002,  1.268625E+002,  0.000000E+000, -8.178199E+001,  1.224502E+000,  3.063398E+000,  5.008704E-001
  2.875185E+002,  1.334105E+002,  0.000000E+000, -6.970842E+001,  1.187129E+000,  3.697914E+000,  5.006601E-001
  2.984659E+002,  1.400342E+002,  0.000000E+000, -5.637321E+001,  1.066032E+000,  4.295072E+000,  5.008289E-001
  3.088210E+002,  1.463970E+002,  0.000000E+000, -4.149297E+001,  8.657575E-001,  4.867801E+000,  5.000711E-001
  3.150769E+002,  1.506575E+002,  0.000000E+000, -2.581582E+001,  7.011057E-001,  5.204035E+000,  5.001315E-001
  3.171191E+002,  1.523814E+002,  0.000000E+000, -9.308289E+000,  6.540022E-001,  5.134621E+000,  5.007192E-001
  3.165300E+002,  1.523408E+002,  0.000000E+000,  7.512678E+000,  7.072005E-001,  4.884725E+000,  5.007055E-001
  3.130536E+002,  1.501990E+002,  0.000000E+000,  2.367396E+001,  7.613585E-001,  4.467185E+000,  5.002625E-001
  3.054068E+002,  1.456265E+002,  0.000000E+000,  4.019044E+001,  5.906761E-001,  3.856127E+000,  5.005657E-001
  2.951931E+002,  1.397847E+002,  0.000000E+000,  5.585550E+001,  3.015062E-001,  3.249743E+000,  5.002437E-001
  2.844749E+002,  1.336497E+002,  0.000000E+000,  6.986553E+001,  3.156033E-002,  2.651189E+000,  5.001530E-001
  2.739272E+002,  1.275131E+002,  0.000000E+000,  8.253902E+001, -1.232354E-001,  2.067828E+000,  5.009140E-001
  2.636670E+002,  1.213355E+002,  0.000000E+000,  9.393034E+001, -1.795171E-001,  1.519783E+000,  5.000958E-001
  2.538181E+002,  1.150437E+002,  0.000000E+000,  1.040531E+002, -7.966069E-002,  1.037589E+000,  5.004807E-001
  2.449556E+002,  1.099755E+002,  0.000000E+000,  1.119391E+002, -4.664036E-002,  7.340698E-001,  5.002764E-001
  2.382169E+002,  1.084404E+002,  0.000000E+000,  1.163364E+002,  8.186545E-002,  5.348027E-001,  5.000427E-001
  2.389892E+002,  1.297396E+002,  0.000000E+000, -1.138691E+002, -2.529768E-002,  6.203116E-002,  5.006999E-001
  2.474513E+002,  1.354665E+002,  0.000000E+000, -1.073759E+002,  4.251447E-001,  6.984142E-001,  5.008033E-001
  2.570385E+002,  1.429127E+002,  0.000000E+000, -9.877177E+001,  7.671013E-001,  1.473550E+000,  5.008673E-001
  2.669631E+002,  1.510500E+002,  0.000000E+000, -8.909342E+001,  9.825961E-001,  2.236563E+000,  5.001474E-001
  2.771965E+002,  1.597218E+002,  0.000000E+000, -7.842142E+001,  1.061015E+000,  2.935830E+000,  5.007516E-001
  2.876863E+002,  1.688026E+002,  0.000000E+000, -6.667667E+001,  1.015754E+000,  3.561982E+000,  5.002102E-001
  2.984413E+002,  1.780029E+002,  0.000000E+000, -5.380625E+001,  9.405814E-001,  4.138426E+000,  5.007500E-001
  3.086197E+002,  1.866696E+002,  0.000000E+000, -3.942091E+001,  7.990946E-001,  4.685918E+000,  5.008552E-001
  3.148695E+002,  1.923378E+002,  0.000000E+000, -2.454042E+001,  6.661906E-001,  5.059615E+000,  5.003648E-001
  3.172731E+002,  1.948335E+002,  0.000000E+000, -8.765223E+000,  5.855396E-001,  5.082570E+000,  5.000792E-001
  3.165467E+002,  1.947109E+002,  0.000000E+000,  7.217120E+000,  6.158186E-001,  4.872282E+000,  5.007470E-001
  3.129032E+002,  1.921415E+002,  0.000000E+000,  2.269114E+001,  5.807860E-001,  4.427134E+000,  5.001634E-001
  3.055459E+002,  1.866343E+002,  0.000000E+000,  3.845476E+001,  3.760549E-001,  3.818734E+000,  5.005364E-001
  2.955022E+002,  1.785618E+002,  0.000000E+000,  5.359348E+001,  1.468093E-001,  3.255877E+000,  5.005300E-001
  2.849786E+002,  1.694816E+002,  0.000000E+000,  6.699934E+001, -6.008168E-002,  2.697312E+000,  5.006580E-001
  2.746791E+002,  1.601898E+002,  0.000000E+000,  7.908859E+001, -1.606408E-001,  2.156080E+000,  5.008143E-001
  2.647165E+002,  1.511095E+002,  0.000000E+000,  9.009306E+001, -1.793038E-001,  1.645932E+000,  5.006664E-001
  2.551187E+002,  1.424685E+002,  0.000000E+000,  1.000522E+002, -1.163040E-001,  1.191211E+000,  5.008362E-001
  2.458977E+002,  1.344341E+002,  0.000000E+000,  1.089412E+002, -4.076822E-003,  7.477738E-001,  5.000143E-001
  2.377570E+002,  1.282253E+002,  0.000000E+000,  1.156737E+002,  3.253236E-003,  4.604353E-001,  5.005599E-001
  2.391541E+002,  1.513773E+002,  0.000000E+000, -1.111930E+002,  1.081011E-001, -2.885047E-001,  5.004308E-001
  2.481288E+002,  1.591417E+002,  0.000000E+000, -1.035562E+002,  4.997138E-001,  3.971519E-001,  5.000517E-001
  2.575938E+002,  1.677369E+002,  0.000000E+000, -9.475432E+001,  7.168377E-001,  1.156693E+000,  5.003058E-001
  2.674024E+002,  1.769784E+002,  0.000000E+000, -8.507129E+001,  8.193534E-001,  1.940038E+000,  5.007037E-001
  2.774611E+002,  1.868454E+002,  0.000000E+000, -7.444976E+001,  8.026280E-001,  2.707457E+000,  5.002075E-001
  2.877639E+002,  1.972984E+002,  0.000000E+000, -6.291958E+001,  7.481471E-001,  3.432332E+000,  5.000446E-001
  2.982265E+002,  2.082148E+002,  0.000000E+000, -5.038976E+001,  6.590318E-001,  4.048835E+000,  5.000350E-001
  3.080188E+002,  2.188882E+002,  0.000000E+000, -3.647002E+001,  5.076104E-001,  4.602743E+000,  5.000480E-001
  3.140954E+002,  2.270466E+002,  0.000000E+000, -2.252381E+001,  4.005131E-001,  5.007423E+000,  5.002303E-001
  3.168041E+002,  2.318842E+002,  0.000000E+000, -7.871204E+000,  3.978293E-001,  5.076103E+000,  5.006992E-001
  3.158955E+002,  2.317643E+002,  0.000000E+000,  6.814154E+000,  4.574982E-001,  4.840895E+000,  5.000094E-001
  3.122859E+002,  2.273652E+002,  0.000000E+000,  2.114653E+001,  4.584635E-001,  4.406733E+000,  5.000377E-001
  3.053936E+002,  2.191565E+002,  0.000000E+000,  3.568109E+001,  3.237706E-001,  3.834613E+000,  5.002216E-001
  2.957200E+002,  2.085083E+002,  0.000000E+000,  5.015291E+001,  1.845958E-001,  3.323779E+000,  5.002236E-001
  2.855228E+002,  1.974488E+002,  0.000000E+000,  6.307285E+001,  4.072302E-002,  2.803427E+000,  5.003528E-001
  2.755052E+002,  1.866505E+002,  0.000000E+000,  7.483301E+001, -6.292563E-002,  2.273880E+000,  5.003031E-001
  2.657825E+002,  1.763253E+002,  0.000000E+000,  8.564721E+001, -1.252554E-001,  1.746741E+000,  5.006499E-001
  2.563448E+002,  1.665686E+002,  0.000000E+000,  9.557225E+001, -1.366894E-001,  1.265170E+000,  5.008157E-001
  2.471489E+002,  1.574562E+002,  0.000000E+000,  1.046007E+002, -8.096140E-002,  7.901148E-001,  5.004560E-001
  2.383253E+002,  1.491964E+002,  0.000000E+000,  1.125342E+002, -1.781429E-002,  3.895504E-001,  5.006209E-001
  2.395244E+002,  1.717971E+002,  0.000000E+000, -1.074727E+002,  2.466661E-001, -5.292136E-001,  5.002483E-001
  2.485380E+002,  1.804342E+002,  0.000000E+000, -9.946038E+001,  4.718581E-001,  7.926050E-002,  5.004505E-001
  2.578942E+002,  1.897253E+002,  0.000000E+000, -9.061914E+001,  5.821955E-001,  7.926419E-001,  5.007630E-001
  2.675412E+002,  1.996182E+002,  0.000000E+000, -8.093913E+001,  5.853842E-001,  1.573551E+000,  5.000827E-001
  2.774737E+002,  2.100809E+002,  0.000000E+000, -7.043319E+001,  5.238448E-001,  2.384880E+000,  5.000549E-001
  2.876253E+002,  2.210420E+002,  0.000000E+000, -5.908226E+001,  4.383899E-001,  3.210742E+000,  5.004713E-001
  2.978107E+002,  2.322404E+002,  0.000000E+000, -4.681142E+001,  3.307822E-001,  3.941627E+000,  5.007928E-001
  3.070182E+002,  2.423004E+002,  0.000000E+000, -3.342558E+001,  2.187666E-001,  4.488653E+000,  5.000770E-001
  3.126217E+002,  2.486634E+002,  0.000000E+000, -2.049872E+001,  1.682601E-001,  4.819700E+000,  5.004588E-001
  3.153344E+002,  2.517496E+002,  0.000000E+000, -7.058567E+000,  2.035497E-001,  4.931405E+000,  5.002233E-001
  3.145202E+002,  2.513403E+002,  0.000000E+000,  6.403984E+000,  3.647836E-001,  4.774211E+000,  5.005735E-001
  3.110317E+002,  2.480922E+002,  0.000000E+000,  1.949368E+001,  4.938287E-001,  4.353507E+000,  5.004442E-001
  3.048066E+002,  2.417026E+002,  0.000000E+000,  3.270883E+001,  4.401517E-001,  3.884490E+000,  5.002218E-001
  2.957403E+002,  2.318624E+002,  0.000000E+000,  4.644501E+001,  2.939946E-001,  3.424556E+000,  5.000479E-001
  2.859578E+002,  2.206454E+002,  0.000000E+000,  5.896490E+001,  1.177835E-001,  2.895070E+000,  5.006814E-001
  2.761936E+002,  2.092851E+002,  0.000000E+000,  7.047736E+001, -1.359104E-002,  2.342998E+000,  5.000112E-001
  2.666491E+002,  1.983905E+002,  0.000000E+000,  8.113460E+001, -8.440375E-002,  1.790348E+000,  5.009301E-001
  2.572680E+002,  1.880370E+002,  0.000000E+000,  9.099796E+001, -1.103767E-001,  1.278329E+000,  5.006642E-001
  2.480307E+002,  1.783266E+002,  0.000000E+000,  1.000892E+002, -9.591777E-002,  8.189138E-001,  5.005124E-001
  2.390286E+002,  1.692752E+002,  0.000000E+000,  1.083654E+002, -2.850435E-002,  4.515468E-001,  5.006779E-001
  2.396225E+002,  1.904927E+002,  0.000000E+000, -1.034770E+002,  2.374027E-001, -7.408853E-001,  5.003012E-001
  2.486013E+002,  1.995142E+002,  0.000000E+000, -9.537400E+001,  3.823909E-001, -2.167330E-001,  5.007873E-001
  2.578510E+002,  2.090630E+002,  0.000000E+000, -8.651112E+001,  4.176949E-001,  4.040419E-001,  5.001796E-001
  2.673627E+002,  2.191580E+002,  0.000000E+000, -7.692483E+001,  3.548418E-001,  1.140386E+000,  5.002479E-001
  2.770885E+002,  2.296138E+002,  0.000000E+000, -6.661708E+001,  2.734775E-001,  1.980717E+000,  5.000670E-001
  2.869588E+002,  2.399551E+002,  0.000000E+000, -5.563763E+001,  1.778316E-001,  2.843510E+000,  5.000469E-001
  2.967312E+002,  2.494181E+002,  0.000000E+000, -4.395309E+001,  7.966164E-002,  3.578299E+000,  5.008644E-001
  3.054580E+002,  2.573667E+002,  0.000000E+000, -3.138956E+001, -8.593326E-003,  4.152163E+000,  5.005485E-001
  3.107579E+002,  2.621280E+002,  0.000000E+000, -1.935986E+001,  1.875647E-002,  4.545326E+000,  5.008538E-001
  3.134952E+002,  2.644644E+002,  0.000000E+000, -6.714083E+000,  1.805993E-001,  4.677859E+000,  5.004155E-001
  3.128270E+002,  2.639054E+002,  0.000000E+000,  6.137058E+000,  3.395302E-001,  4.613046E+000,  5.004312E-001
  3.094532E+002,  2.610751E+002,  0.000000E+000,  1.851937E+001,  4.172398E-001,  4.274863E+000,  5.004370E-001
  3.037189E+002,  2.560239E+002,  0.000000E+000,  3.067818E+001,  4.242523E-001,  3.844501E+000,  5.003203E-001
  2.952344E+002,  2.478402E+002,  0.000000E+000,  4.341547E+001,  3.411899E-001,  3.393802E+000,  5.005185E-001
  2.859092E+002,  2.382314E+002,  0.000000E+000,  5.531118E+001,  2.049504E-001,  2.909443E+000,  5.008975E-001
  2.764871E+002,  2.280023E+002,  0.000000E+000,  6.635440E+001,  6.557102E-002,  2.325271E+000,  5.000730E-001
  2.670379E+002,  2.174012E+002,  0.000000E+000,  7.679156E+001, -3.452648E-002,  1.722027E+000,  5.001344E-001
  2.576280E+002,  2.070180E+002,  0.000000E+000,  8.656813E+001, -7.933539E-002,  1.233231E+000,  5.004422E-001
  2.483871E+002,  1.971076E+002,  0.000000E+000,  9.565505E+001, -9.304171E-002,  8.327619E-001,  5.005648E-001
  2.394300E+002,  1.877374E+002,  0.000000E+000,  1.039973E+002, -6.928563E-002,  4.971068E-001,  5.004991E-001
  2.393322E+002,  2.075381E+002,  0.000000E+000, -9.956102E+001,  1.428627E-001, -9.029758E-001,  5.007926E-001
  2.481777E+002,  2.166648E+002,  0.000000E+000, -9.143982E+001,  2.130705E-001, -4.588825E-001,  5.005783E-001
  2.572859E+002,  2.261566E+002,  0.000000E+000, -8.265861E+001,  1.997248E-001,  6.635843E-002,  5.000335E-001
  2.666285E+002,  2.357582E+002,  0.000000E+000, -7.329448E+001,  1.715132E-001,  7.241605E-001,  5.003637E-001
  2.760455E+002,  2.447887E+002,  0.000000E+000, -6.346118E+001,  1.192223E-001,  1.470832E+000,  5.006021E-001
  2.856233E+002,  2.532013E+002,  0.000000E+000, -5.315418E+001,  4.346542E-002,  2.206843E+000,  5.004974E-001
  2.950759E+002,  2.610843E+002,  0.000000E+000, -4.201927E+001, -5.901160E-002,  2.904364E+000,  5.007007E-001
  3.034431E+002,  2.677136E+002,  0.000000E+000, -3.007630E+001, -7.515456E-002,  3.597758E+000,  5.000022E-001
  3.084992E+002,  2.715283E+002,  0.000000E+000, -1.866834E+001, -3.892099E-003,  4.105948E+000,  5.008318E-001
  3.112149E+002,  2.734329E+002,  0.000000E+000, -6.528256E+000,  1.316349E-001,  4.265612E+000,  5.003181E-001
  3.107457E+002,  2.729130E+002,  0.000000E+000,  5.918440E+000,  2.265882E-001,  4.231802E+000,  5.006682E-001
  3.074906E+002,  2.704346E+002,  0.000000E+000,  1.784333E+001,  3.000223E-001,  4.038995E+000,  5.005565E-001
  3.022798E+002,  2.662478E+002,  0.000000E+000,  2.922339E+001,  3.193345E-001,  3.674595E+000,  5.004990E-001
  2.942796E+002,  2.592253E+002,  0.000000E+000,  4.114221E+001,  2.799603E-001,  3.202496E+000,  5.003722E-001
  2.852687E+002,  2.508804E+002,  0.000000E+000,  5.248503E+001,  2.147024E-001,  2.672028E+000,  5.008980E-001
  2.758653E+002,  2.419306E+002,  0.000000E+000,  6.304458E+001,  9.308477E-002,  2.112651E+000,  5.004806E-001
  2.665472E+002,  2.328776E+002,  0.000000E+000,  7.302647E+001,  4.200180E-004,  1.599471E+000,  5.004404E-001
  2.573089E+002,  2.235037E+002,  0.000000E+000,  8.247797E+001, -7.153749E-002,  1.157433E+000,  5.000877E-001
  2.482128E+002,  2.138572E+002,  0.000000E+000,  9.141558E+001, -9.741861E-002,  7.941363E-001,  5.001699E-001
  2.394037E+002,  2.044928E+002,  0.000000E+000,  9.974641E+001, -8.952417E-002,  4.696116E-001,  5.007748E-001
  2.385775E+002,  2.229746E+002,  0.000000E+000, -9.579465E+001, -2.105393E-003, -1.086481E+000,  5.003702E-001
  2.472030E+002,  2.318220E+002,  0.000000E+000, -8.779042E+001,  1.424622E-002, -6.692002E-001,  5.006728E-001
  2.560009E+002,  2.403353E+002,  0.000000E+000, -7.932119E+001,  1.510606E-002, -1.799326E-001,  5.002318E-001
  2.650027E+002,  2.482222E+002,  0.000000E+000, -7.048024E+001,  2.176329E-002,  3.325549E-001,  5.003933E-001
  2.742765E+002,  2.557821E+002,  0.000000E+000, -6.118604E+001, -1.250210E-004,  8.606094E-001,  5.008028E-001
  2.837239E+002,  2.631202E+002,  0.000000E+000, -5.133796E+001,  1.560512E-003,  1.466424E+000,  5.007852E-001
  2.929028E+002,  2.700773E+002,  0.000000E+000, -4.062547E+001, -4.144601E-002,  2.116343E+000,  5.007720E-001
  3.008624E+002,  2.759047E+002,  0.000000E+000, -2.916740E+001, -3.930088E-002,  2.785937E+000,  5.005391E-001
  3.055833E+002,  2.790140E+002,  0.000000E+000, -1.820628E+001, -1.338950E-003,  3.268595E+000,  5.000109E-001
  3.083929E+002,  2.808158E+002,  0.000000E+000, -6.435803E+000,  9.744391E-002,  3.529795E+000,  5.007948E-001
  3.079471E+002,  2.802290E+002,  0.000000E+000,  5.726195E+000,  1.118103E-001,  3.589349E+000,  5.001076E-001
  3.049531E+002,  2.779153E+002,  0.000000E+000,  1.730441E+001,  1.746634E-001,  3.471020E+000,  5.007740E-001
  3.002524E+002,  2.743639E+002,  0.000000E+000,  2.809325E+001,  1.958610E-001,  3.185048E+000,  5.008401E-001
  2.926069E+002,  2.681551E+002,  0.000000E+000,  3.944640E+001,  1.475995E-001,  2.747238E+000,  5.006219E-001
  2.837677E+002,  2.608161E+002,  0.000000E+000,  5.030272E+001,  1.167512E-001,  2.255443E+000,  5.006101E-001
  2.744179E+002,  2.528175E+002,  0.000000E+000,  6.041376E+001,  4.810382E-002,  1.819192E+000,  5.005764E-001
  2.651540E+002,  2.446239E+002,  0.000000E+000,  6.999002E+001, -2.074373E-002,  1.432575E+000,  5.002869E-001
  2.561412E+002,  2.364078E+002,  0.000000E+000,  7.903139E+001, -6.063855E-002,  1.044718E+000,  5.000110E-001
  2.473946E+002,  2.280598E+002,  0.000000E+000,  8.759506E+001, -8.123195E-002,  6.703593E-001,  5.006861E-001
  2.388519E+002,  2.193948E+002,  0.000000E+000,  9.570590E+001, -8.541099E-002,  3.712437E-001,  5.004336E-001
  2.372908E+002,  2.363074E+002,  0.000000E+000, -9.234658E+001, -1.643544E-001, -1.254597E+000,  5.002685E-001
  2.455116E+002,  2.438598E+002,  0.000000E+000, -8.470479E+001, -1.347868E-001, -8.870362E-001,  5.003714E-001
  2.539594E+002,  2.509226E+002,  0.000000E+000, -7.671060E+001, -1.168588E-001, -4.973134E-001,  5.006551E-001
  2.627322E+002,  2.577606E+002,  0.000000E+000, -6.830671E+001, -8.346495E-002, -9.128991E-002,  5.008067E-001
  2.718452E+002,  2.645572E+002,  0.000000E+000, -5.943637E+001, -5.661215E-002,  3.366555E-001,  5.007576E-001
  2.810319E+002,  2.712199E+002,  0.000000E+000, -4.989449E+001, -4.899413E-002,  7.777453E-001,  5.000795E-001
  2.899219E+002,  2.776304E+002,  0.000000E+000, -3.948004E+001, -6.821350E-002,  1.250881E+000,  5.007312E-001
  2.972480E+002,  2.827808E+002,  0.000000E+000, -2.850391E+001, -2.557315E-002,  1.758203E+000,  5.004734E-001
  3.016541E+002,  2.855800E+002,  0.000000E+000, -1.783045E+001,  2.424643E-002,  2.185184E+000,  5.002228E-001
  3.041672E+002,  2.871636E+002,  0.000000E+000, -6.357081E+000,  1.001545E-001,  2.436341E+000,  5.005833E-001
  3.038067E+002,  2.866260E+002,  0.000000E+000,  5.508606E+000,  8.772073E-002,  2.562493E+000,  5.006454E-001
  3.010180E+002,  2.844312E+002,  0.000000E+000,  1.678448E+001,  1.039232E-001,  2.484837E+000,  5.000784E-001
  2.966532E+002,  2.812799E+002,  0.000000E+000,  2.723436E+001,  9.776809E-002,  2.278336E+000,  5.008060E-001
  2.895376E+002,  2.757129E+002,  0.000000E+000,  3.804635E+001,  5.552012E-002,  2.002292E+000,  5.000719E-001
  2.810792E+002,  2.689935E+002,  0.000000E+000,  4.851173E+001,  2.635473E-002,  1.729760E+000,  5.003538E-001
  2.720862E+002,  2.618012E+002,  0.000000E+000,  5.827272E+001, -8.643503E-003,  1.447967E+000,  5.005716E-001
  2.630448E+002,  2.543357E+002,  0.000000E+000,  6.741473E+001, -4.665080E-002,  1.142530E+000,  5.007114E-001
  2.542729E+002,  2.467638E+002,  0.000000E+000,  7.612001E+001, -7.442826E-002,  8.377012E-001,  5.009100E-001
  2.457837E+002,  2.392184E+002,  0.000000E+000,  8.434463E+001, -9.310547E-002,  5.525887E-001,  5.008274E-001
  2.375668E+002,  2.316127E+002,  0.000000E+000,  9.211910E+001, -8.361705E-002,  2.882059E-001,  5.003118E-001
