 S11, S22, S33, S12, S23, S31, wp
 -2.504620E+001, -9.876559E+001,  0.000000E+000, -4.895672E+001, -4.140162E-001,  1.011864E+000,  2.001830E-001
 -2.414844E+001, -1.050225E+002,  0.000000E+000, -4.560227E+001, -5.626539E-001,  3.373442E-001,  2.000117E-001
 -2.240377E+001, -1.114207E+002,  0.000000E+000, -4.096102E+001, -6.333139E-001, -4.840806E-001,  2.003858E-001
 -2.104009E+001, -1.183867E+002,  0.000000E+000, -3.289777E+001, -7.635881E-001, -1.489777E+000,  2.001828E-001
 -2.139857E+001, -1.245439E+002,  0.000000E+000, -2.007855E+001, -3.147458E-001, -1.339356E+000,  2.001602E-001
 -2.079001E+001, -1.274906E+002,  0.000000E+000, -6.416354E+000, -4.306976E-001, -1.171820E+000,  2.001876E-001
 -1.906804E+001, -1.276755E+002,  0.000000E+000,  7.845984E+000, -5.509371E-001, -8.608622E-001,  2.002167E-001
 -1.658505E+001, -1.246122E+002,  0.000000E+000,  2.139114E+001, -5.193212E-001,  8.775885E-001,  2.003361E-001
 -1.419807E+001, -1.188101E+002,  0.000000E+000,  3.258079E+001, -1.031035E+000,  1.724434E+000,  2.000694E-001
 -1.345583E+001, -1.115574E+002,  0.000000E+000,  4.077080E+001, -1.223803E+000,  1.985941E+000,  2.003751E-001
 -1.355387E+001, -1.034589E+002,  0.000000E+000,  4.707127E+001, -1.212503E+000,  2.275608E+000,  2.000500E-001
 -1.351954E+001, -9.580873E+001,  0.000000E+000,  5.147795E+001, -1.167233E+000,  2.497881E+000,  2.003873E-001
 -2.705071E+001, -9.139748E+001,  0.000000E+000, -5.222326E+001, -1.141226E-001,  1.574091E+000,  2.003434E-001
 -1.486187E+001, -8.798811E+001,  0.000000E+000,  5.500830E+001, -7.966204E-001,  2.260204E+000,  2.001809E-001
 -2.840712E+001, -8.111459E+001,  0.000000E+000, -5.584293E+001,  5.999371E-002,  1.814002E+000,  2.001691E-001
 -1.612826E+001, -7.794510E+001,  0.000000E+000,  5.838707E+001, -1.612640E-001,  1.753892E+000,  2.002243E-001
 -2.807055E+001, -6.525048E+001,  0.000000E+000, -5.998603E+001, -1.691421E-001,  1.828816E+000,  2.000830E-001
 -1.665799E+001, -6.365540E+001,  0.000000E+000,  6.189522E+001,  9.990260E-001,  1.269005E+000,  2.003432E-001
 -3.275542E+000, -9.710434E+001,  0.000000E+000, -4.719339E+001, -6.129140E-001,  1.124593E+000,  2.002284E-001
  8.895130E-001, -1.032345E+002,  0.000000E+000, -4.340421E+001, -6.780048E-001,  4.176671E-001,  2.000944E-001
  6.581645E+000, -1.094704E+002,  0.000000E+000, -3.817303E+001, -6.719406E-001, -1.771605E-001,  2.001406E-001
  1.364474E+001, -1.157771E+002,  0.000000E+000, -3.053394E+001, -7.069260E-001, -9.652433E-001,  2.002721E-001
  1.853984E+001, -1.214390E+002,  0.000000E+000, -1.912617E+001, -3.434387E-001, -1.252232E+000,  2.001067E-001
  2.230127E+001, -1.245612E+002,  0.000000E+000, -5.502473E+000, -2.880427E-001, -8.949974E-001,  2.002241E-001
  2.372787E+001, -1.249808E+002,  0.000000E+000,  8.793911E+000, -6.831278E-002, -2.144304E-001,  2.002135E-001
  2.181409E+001, -1.220924E+002,  0.000000E+000,  2.137394E+001, -2.522114E-001,  1.415716E+000,  2.002198E-001
  1.757928E+001, -1.168617E+002,  0.000000E+000,  3.154352E+001, -1.163251E+000,  2.260934E+000,  2.001141E-001
  1.298275E+001, -1.104945E+002,  0.000000E+000,  3.925494E+001, -1.502748E+000,  2.579628E+000,  2.003032E-001
  8.233475E+000, -1.029676E+002,  0.000000E+000,  4.547882E+001, -1.435422E+000,  2.578329E+000,  2.003719E-001
  4.491896E+000, -9.532678E+001,  0.000000E+000,  5.026832E+001, -1.277664E+000,  2.688130E+000,  2.002752E-001
 -4.857710E+000, -8.991386E+001,  0.000000E+000, -5.055456E+001, -4.663911E-001,  1.741927E+000,  2.001293E-001
  2.920895E+000, -8.753993E+001,  0.000000E+000,  5.378810E+001, -9.457611E-001,  2.390518E+000,  2.001379E-001
 -6.085144E+000, -7.963777E+001,  0.000000E+000, -5.441463E+001, -1.712536E-001,  1.951186E+000,  2.002367E-001
  2.072893E+000, -7.721479E+001,  0.000000E+000,  5.752983E+001, -1.660645E-001,  1.632779E+000,  2.003475E-001
 -6.390467E+000, -6.401884E+001,  0.000000E+000, -5.865118E+001, -2.769054E-001,  1.702003E+000,  2.002054E-001
  2.936809E+000, -6.266240E+001,  0.000000E+000,  6.140696E+001,  1.111717E+000,  8.521497E-001,  2.002108E-001
 -3.581243E+000, -3.975019E+001,  0.000000E+000, -6.327460E+001, -7.535182E-001,  9.644398E-001,  2.002618E-001
  6.348725E+000, -4.181618E+001,  0.000000E+000,  6.534276E+001,  2.442623E+000,  2.289321E-001,  2.002855E-001
  3.666519E+000, -8.055918E+000,  0.000000E+000, -6.667366E+001, -2.153780E+000,  3.031875E-001,  2.000384E-001
  1.257631E+001, -1.624312E+001,  0.000000E+000,  6.785907E+001,  2.891897E+000, -1.948645E-001,  2.000710E-001
  1.119766E+001,  2.181160E+001,  0.000000E+000, -6.726726E+001, -3.223132E+000, -2.641013E-001,  2.000255E-001
  2.032292E+001,  1.466183E+001,  0.000000E+000,  6.752702E+001,  2.195126E+000, -9.693515E-001,  2.003545E-001
  1.544263E+001,  4.544081E+001,  0.000000E+000, -6.508009E+001, -2.560303E+000, -7.335920E-001,  2.003413E-001
  2.564533E+001,  4.312742E+001,  0.000000E+000,  6.430676E+001,  8.025358E-001, -1.469616E+000,  2.000795E-001
  1.940568E+001, -9.467633E+001,  0.000000E+000, -4.437479E+001, -7.274026E-001,  1.356621E+000,  2.000218E-001
  2.602960E+001, -1.001886E+002,  0.000000E+000, -4.003980E+001, -7.076457E-001,  6.700467E-001,  2.001546E-001
  3.187474E+001, -1.058479E+002,  0.000000E+000, -3.464926E+001, -6.393272E-001,  8.533960E-002,  2.004096E-001
