 S11, S22, S33, S12, S23, S31, wp
 -5.571587E+001, -1.325742E+002,  0.000000E+000, -9.328311E+001, -8.066224E-001, -3.428571E-001,  3.204830E-001
 -6.054174E+001, -1.431665E+002,  0.000000E+000, -8.504253E+001, -1.085845E+000,  2.491642E-002,  3.200183E-001
 -6.614174E+001, -1.546943E+002,  0.000000E+000, -7.562414E+001, -1.360895E+000,  4.627899E-001,  3.205571E-001
 -7.250984E+001, -1.671399E+002,  0.000000E+000, -6.501149E+001, -1.617563E+000,  9.730038E-001,  3.205171E-001
 -7.958123E+001, -1.804666E+002,  0.000000E+000, -5.330022E+001, -1.867967E+000,  1.584495E+000,  3.205226E-001
 -8.731776E+001, -1.945579E+002,  0.000000E+000, -4.052091E+001, -2.102450E+000,  2.325110E+000,  3.203457E-001
 -9.557377E+001, -2.087083E+002,  0.000000E+000, -2.699496E+001, -2.229483E+000,  3.284770E+000,  3.202263E-001
 -1.033337E+002, -2.209441E+002,  0.000000E+000, -1.436733E+001, -2.164915E+000,  4.412708E+000,  3.203929E-001
 -1.073354E+002, -2.257056E+002,  0.000000E+000, -7.925628E+000, -1.622864E+000,  5.172033E+000,  3.205912E-001
 -1.089320E+002, -2.272326E+002,  0.000000E+000, -3.850768E+000, -8.058855E-001,  5.405700E+000,  3.202231E-001
 -1.088454E+002, -2.269172E+002,  0.000000E+000, -1.910281E-001,  9.675658E-002,  5.259167E+000,  3.205620E-001
 -1.068791E+002, -2.246174E+002,  0.000000E+000,  4.557457E+000,  9.429236E-001,  4.781233E+000,  3.204800E-001
 -1.013184E+002, -2.174867E+002,  0.000000E+000,  1.375217E+001,  1.367646E+000,  3.888132E+000,  3.205346E-001
 -9.250633E+001, -2.042556E+002,  0.000000E+000,  2.797314E+001,  1.467547E+000,  2.934839E+000,  3.200844E-001
 -8.385929E+001, -1.903089E+002,  0.000000E+000,  4.201556E+001,  1.494154E+000,  2.121879E+000,  3.200409E-001
 -7.575942E+001, -1.766899E+002,  0.000000E+000,  5.507149E+001,  1.492616E+000,  1.411203E+000,  3.204316E-001
 -6.838825E+001, -1.637989E+002,  0.000000E+000,  6.698269E+001,  1.449012E+000,  8.036612E-001,  3.202873E-001
 -6.168636E+001, -1.517436E+002,  0.000000E+000,  7.773224E+001,  1.354316E+000,  2.717219E-001,  3.204735E-001
 -5.571736E+001, -1.404302E+002,  0.000000E+000,  8.733483E+001,  1.213696E+000, -2.628771E-001,  3.203015E-001
 -5.072067E+001, -1.301421E+002,  0.000000E+000,  9.560348E+001,  9.751319E-001, -7.830981E-001,  3.201621E-001
 -4.341877E+001, -1.316810E+002,  0.000000E+000, -9.508226E+001, -7.720085E-001, -5.988446E-001,  3.203984E-001
 -4.723829E+001, -1.420429E+002,  0.000000E+000, -8.721272E+001, -1.055368E+000, -2.553403E-001,  3.205031E-001
 -5.192817E+001, -1.534584E+002,  0.000000E+000, -7.796372E+001, -1.315963E+000,  1.770292E-001,  3.203180E-001
 -5.742358E+001, -1.658005E+002,  0.000000E+000, -6.742446E+001, -1.558533E+000,  6.862520E-001,  3.200794E-001
 -6.375785E+001, -1.790406E+002,  0.000000E+000, -5.566307E+001, -1.761509E+000,  1.303756E+000,  3.204576E-001
 -7.089257E+001, -1.928345E+002,  0.000000E+000, -4.284657E+001, -1.890310E+000,  2.075412E+000,  3.200849E-001
 -7.876094E+001, -2.066716E+002,  0.000000E+000, -2.928345E+001, -1.931384E+000,  3.014294E+000,  3.205447E-001
 -8.661249E+001, -2.188316E+002,  0.000000E+000, -1.628288E+001, -1.798618E+000,  3.961053E+000,  3.204632E-001
 -9.099911E+001, -2.241153E+002,  0.000000E+000, -8.866653E+000, -1.358792E+000,  4.554556E+000,  3.200767E-001
 -9.264311E+001, -2.258669E+002,  0.000000E+000, -4.090477E+000, -6.648580E-001,  4.753540E+000,  3.203813E-001
 -9.221384E+001, -2.255259E+002,  0.000000E+000,  2.002135E-001,  1.725600E-001,  4.661623E+000,  3.200063E-001
 -8.955909E+001, -2.228942E+002,  0.000000E+000,  5.808788E+000,  9.219378E-001,  4.327675E+000,  3.200362E-001
 -8.321035E+001, -2.150697E+002,  0.000000E+000,  1.619236E+001,  1.196092E+000,  3.592046E+000,  3.202177E-001
 -7.469624E+001, -2.021827E+002,  0.000000E+000,  3.057690E+001,  1.295535E+000,  2.720144E+000,  3.201622E-001
 -6.664530E+001, -1.886042E+002,  0.000000E+000,  4.465653E+001,  1.320208E+000,  1.885450E+000,  3.200422E-001
 -5.938711E+001, -1.752193E+002,  0.000000E+000,  5.778200E+001,  1.336081E+000,  1.202945E+000,  3.201399E-001
 -5.295004E+001, -1.624185E+002,  0.000000E+000,  6.973276E+001,  1.288545E+000,  5.995505E-001,  3.203464E-001
 -4.734715E+001, -1.504314E+002,  0.000000E+000,  8.038839E+001,  1.168055E+000,  7.060521E-002,  3.202871E-001
 -4.266520E+001, -1.393300E+002,  0.000000E+000,  8.970640E+001,  1.004454E+000, -4.824088E-001,  3.204418E-001
 -3.889988E+001, -1.292565E+002,  0.000000E+000,  9.765626E+001,  8.117368E-001, -9.862600E-001,  3.201851E-001
 -4.212459E+001, -1.214145E+002,  0.000000E+000, -1.022767E+002, -4.674817E-001, -8.700985E-001,  3.203340E-001
 -3.732328E+001, -1.192529E+002,  0.000000E+000,  1.049893E+002,  5.608517E-001, -1.423033E+000,  3.201092E-001
 -4.087242E+001, -1.098845E+002,  0.000000E+000, -1.098831E+002, -1.308619E-002, -1.129668E+000,  3.200503E-001
 -3.548591E+001, -1.080581E+002,  0.000000E+000,  1.127231E+002,  1.341562E-001, -1.851999E+000,  3.204493E-001
 -3.952373E+001, -9.674587E+001,  0.000000E+000, -1.178634E+002,  6.776549E-001, -1.418767E+000,  3.204402E-001
 -3.329003E+001, -9.549502E+001,  0.000000E+000,  1.207131E+002, -5.360884E-001, -2.223696E+000,  3.200636E-001
 -3.022314E+001, -1.302672E+002,  0.000000E+000, -9.610143E+001, -5.648653E-001, -9.372234E-001,  3.204126E-001
 -3.289872E+001, -1.402485E+002,  0.000000E+000, -8.867996E+001, -8.389962E-001, -6.513403E-001,  3.205711E-001
 -3.674985E+001, -1.512811E+002,  0.000000E+000, -7.980857E+001, -1.026949E+000, -2.335685E-001,  3.204186E-001
 -4.167434E+001, -1.632645E+002,  0.000000E+000, -6.950942E+001, -1.180494E+000,  2.577304E-001,  3.204083E-001
 -4.765594E+001, -1.761195E+002,  0.000000E+000, -5.790230E+001, -1.323347E+000,  9.058778E-001,  3.203936E-001
 -5.469522E+001, -1.894288E+002,  0.000000E+000, -4.525248E+001, -1.360979E+000,  1.680226E+000,  3.202540E-001
 -6.266761E+001, -2.027016E+002,  0.000000E+000, -3.183790E+001, -1.347856E+000,  2.515799E+000,  3.202153E-001
 -7.085102E+001, -2.147444E+002,  0.000000E+000, -1.856933E+001, -1.266406E+000,  3.337746E+000,  3.203638E-001
 -7.585274E+001, -2.207924E+002,  0.000000E+000, -9.930967E+000, -9.139131E-001,  3.858055E+000,  3.201882E-001
 -7.761663E+001, -2.227804E+002,  0.000000E+000, -4.276980E+000, -3.459010E-001,  4.042086E+000,  3.204114E-001
 -7.684534E+001, -2.223495E+002,  0.000000E+000,  9.308033E-001,  3.244249E-001,  4.012551E+000,  3.201505E-001
 -7.336180E+001, -2.192360E+002,  0.000000E+000,  7.609757E+000,  9.041145E-001,  3.733894E+000,  3.205679E-001
 -6.591148E+001, -2.106912E+002,  0.000000E+000,  1.908646E+001,  1.104274E+000,  3.059405E+000,  3.202791E-001
 -5.709655E+001, -1.983343E+002,  0.000000E+000,  3.337709E+001,  1.144220E+000,  2.234815E+000,  3.204930E-001
 -4.904096E+001, -1.853199E+002,  0.000000E+000,  4.728708E+001,  1.139465E+000,  1.432469E+000,  3.202688E-001
 -4.211742E+001, -1.724472E+002,  0.000000E+000,  6.021335E+001,  1.124803E+000,  7.793099E-001,  3.202613E-001
 -3.641678E+001, -1.601071E+002,  0.000000E+000,  7.192783E+001,  1.026113E+000,  2.039947E-001,  3.204411E-001
 -3.195489E+001, -1.484690E+002,  0.000000E+000,  8.226230E+001,  9.018354E-001, -3.403245E-001,  3.201488E-001
 -2.853856E+001, -1.377850E+002,  0.000000E+000,  9.118730E+001,  7.410032E-001, -8.694595E-001,  3.204031E-001
 -2.594891E+001, -1.280065E+002,  0.000000E+000,  9.883262E+001,  5.452883E-001, -1.329269E+000,  3.202725E-001
 -2.879293E+001, -1.202423E+002,  0.000000E+000, -1.031039E+002, -2.542582E-001, -1.156379E+000,  3.205279E-001
 -2.435242E+001, -1.180774E+002,  0.000000E+000,  1.061840E+002,  2.807145E-001, -1.696064E+000,  3.205738E-001
 -2.754132E+001, -1.088577E+002,  0.000000E+000, -1.105775E+002,  2.291399E-001, -1.313206E+000,  3.205501E-001
 -2.272591E+001, -1.069530E+002,  0.000000E+000,  1.139603E+002, -1.388282E-001, -2.014308E+000,  3.205781E-001
 -2.644538E+001, -9.601054E+001,  0.000000E+000, -1.183754E+002,  9.327721E-001, -1.415894E+000,  3.206098E-001
 -2.115085E+001, -9.448970E+001,  0.000000E+000,  1.220587E+002, -7.107503E-001, -2.228687E+000,  3.203559E-001
 -2.572510E+001, -8.173456E+001,  0.000000E+000, -1.262237E+002,  1.800757E+000, -1.476095E+000,  3.204093E-001
 -1.952867E+001, -8.074307E+001,  0.000000E+000,  1.301883E+002, -1.556658E+000, -2.325103E+000,  3.203575E-001
 -2.535141E+001, -6.597675E+001,  0.000000E+000, -1.338630E+002,  2.890763E+000, -1.535962E+000,  3.201815E-001
 -1.814867E+001, -6.617728E+001,  0.000000E+000,  1.377569E+002, -2.792590E+000, -2.357457E+000,  3.204478E-001
 -2.445168E+001, -4.917412E+001,  0.000000E+000, -1.407833E+002,  4.316549E+000, -1.558270E+000,  3.206718E-001
 -1.632149E+001, -5.145734E+001,  0.000000E+000,  1.439901E+002, -4.500368E+000, -2.234101E+000,  3.204101E-001
 -2.240404E+001, -3.308255E+001,  0.000000E+000, -1.460132E+002,  5.913529E+000, -1.452369E+000,  3.200558E-001
 -1.404155E+001, -3.830772E+001,  0.000000E+000,  1.478298E+002, -6.221230E+000, -2.130354E+000,  3.201015E-001
 -1.726976E+001, -1.282899E+002,  0.000000E+000, -9.627936E+001, -1.386692E-001, -1.330359E+000,  3.205931E-001
 -1.896442E+001, -1.376086E+002,  0.000000E+000, -8.943122E+001, -3.779831E-001, -1.085230E+000,  3.205853E-001
 -2.194799E+001, -1.479370E+002,  0.000000E+000, -8.113582E+001, -5.390235E-001, -7.010105E-001,  3.200122E-001
 -2.641122E+001, -1.592851E+002,  0.000000E+000, -7.128762E+001, -6.328600E-001, -2.265543E-001,  3.205835E-001
 -3.231091E+001, -1.714374E+002,  0.000000E+000, -6.005283E+001, -7.327042E-001,  3.871159E-001,  3.202813E-001
 -3.958866E+001, -1.840699E+002,  0.000000E+000, -4.775999E+001, -8.194739E-001,  1.165527E+000,  3.204212E-001
 -4.793737E+001, -1.966482E+002,  0.000000E+000, -3.467015E+001, -7.905013E-001,  1.938364E+000,  3.205515E-001
 -5.685199E+001, -2.085442E+002,  0.000000E+000, -2.125344E+001, -7.315198E-001,  2.720653E+000,  3.202522E-001
 -6.282952E+001, -2.157295E+002,  0.000000E+000, -1.114357E+001, -5.280082E-001,  3.251956E+000,  3.200490E-001
 -6.468693E+001, -2.180980E+002,  0.000000E+000, -4.362274E+000, -8.494993E-002,  3.486431E+000,  3.203394E-001
 -6.365269E+001, -2.176063E+002,  0.000000E+000,  1.908551E+000,  3.853561E-001,  3.514747E+000,  3.200448E-001
 -5.925482E+001, -2.137264E+002,  0.000000E+000,  1.002600E+001,  6.856309E-001,  3.185163E+000,  3.201463E-001
 -5.032316E+001, -2.044327E+002,  0.000000E+000,  2.256872E+001,  8.008155E-001,  2.480232E+000,  3.205068E-001
 -4.078831E+001, -1.926285E+002,  0.000000E+000,  3.650341E+001,  8.394345E-001,  1.650921E+000,  3.205190E-001
 -3.248158E+001, -1.803291E+002,  0.000000E+000,  4.998490E+001,  8.674213E-001,  8.810235E-001,  3.203814E-001
 -2.567349E+001, -1.682444E+002,  0.000000E+000,  6.244897E+001,  7.769884E-001,  2.115606E-001,  3.203413E-001
 -2.042878E+001, -1.566027E+002,  0.000000E+000,  7.366243E+001,  6.532189E-001, -3.930883E-001,  3.202604E-001
 -1.672904E+001, -1.457075E+002,  0.000000E+000,  8.344703E+001,  5.597791E-001, -8.998460E-001,  3.203831E-001
 -1.444826E+001, -1.356704E+002,  0.000000E+000,  9.177987E+001,  4.707942E-001, -1.345300E+000,  3.200398E-001
 -1.299919E+001, -1.262730E+002,  0.000000E+000,  9.908188E+001,  2.854122E-001, -1.720477E+000,  3.205356E-001
 -1.552288E+001, -1.184892E+002,  0.000000E+000, -1.028180E+002,  1.992238E-001, -1.490666E+000,  3.203540E-001
 -1.125861E+001, -1.165150E+002,  0.000000E+000,  1.060948E+002, -1.195976E-002, -2.015626E+000,  3.201387E-001
 -1.408689E+001, -1.072979E+002,  0.000000E+000, -1.097154E+002,  6.791901E-001, -1.511948E+000,  3.202250E-001
 -9.831611E+000, -1.055786E+002,  0.000000E+000,  1.134804E+002, -4.323463E-001, -2.198929E+000,  3.200192E-001
 -1.329491E+001, -9.482400E+001,  0.000000E+000, -1.167408E+002,  1.368956E+000, -1.390317E+000,  3.205484E-001
 -9.000782E+000, -9.360063E+001,  0.000000E+000,  1.209906E+002, -1.051797E+000, -2.245498E+000,  3.205643E-001
 -1.269132E+001, -8.088719E+001,  0.000000E+000, -1.236783E+002,  2.179300E+000, -1.131381E+000,  3.206394E-001
 -8.392038E+000, -8.023531E+001,  0.000000E+000,  1.284159E+002, -1.864058E+000, -2.052773E+000,  3.200033E-001
 -1.157495E+001, -6.490387E+001,  0.000000E+000, -1.307265E+002,  3.182670E+000, -9.052609E-001,  3.200754E-001
 -7.211500E+000, -6.545145E+001,  0.000000E+000,  1.355499E+002, -2.903814E+000, -1.718075E+000,  3.200587E-001
 -1.026869E+001, -4.774740E+001,  0.000000E+000, -1.375803E+002,  4.344353E+000, -6.420627E-001,  3.201611E-001
 -5.632190E+000, -5.006615E+001,  0.000000E+000,  1.420217E+002, -4.242833E+000, -1.327798E+000,  3.201616E-001
 -8.253702E+000, -3.032461E+001,  0.000000E+000, -1.435917E+002,  5.567502E+000, -3.944872E-001,  3.203361E-001
 -2.714877E+000, -3.523851E+001,  0.000000E+000,  1.467843E+002, -5.811060E+000, -9.527888E-001,  3.202233E-001
 -4.569841E+000, -1.399959E+001,  0.000000E+000, -1.477129E+002,  6.650217E+000, -2.569994E-002,  3.202897E-001
  2.164104E+000, -2.132556E+001,  0.000000E+000,  1.491965E+002, -6.850323E+000, -6.095009E-001,  3.200794E-001
  8.003418E-001,  4.434318E-001,  0.000000E+000, -1.495191E+002,  7.291896E+000,  4.768264E-001,  3.207084E-001
  7.969033E+000, -7.840403E+000,  0.000000E+000,  1.500397E+002, -7.218026E+000, -1.191620E-001,  3.201942E-001
  6.348266E+000,  1.367941E+001,  0.000000E+000, -1.499829E+002,  7.463762E+000,  1.082142E+000,  3.203621E-001
  1.390076E+001,  5.576367E+000,  0.000000E+000,  1.499407E+002, -7.306899E+000,  4.688605E-001,  3.204713E-001
  1.098693E+001,  2.616479E+001,  0.000000E+000, -1.495278E+002,  7.235673E+000,  1.715780E+000,  3.203218E-001
  1.908982E+001,  1.892624E+001,  0.000000E+000,  1.488561E+002, -7.042152E+000,  1.052722E+000,  3.204754E-001
 -4.722393E+000, -1.254425E+002,  0.000000E+000, -9.564554E+001,  3.386224E-001, -1.666495E+000,  3.204146E-001
 -5.598949E+000, -1.340147E+002,  0.000000E+000, -8.949917E+001,  1.696108E-001, -1.499127E+000,  3.202527E-001
 -8.018498E+000, -1.433540E+002,  0.000000E+000, -8.203950E+001,  7.772353E-002, -1.183123E+000,  3.202587E-001
 -1.232300E+001, -1.537605E+002,  0.000000E+000, -7.279763E+001, -4.446894E-003, -7.549618E-001,  3.203442E-001
 -1.828675E+001, -1.649655E+002,  0.000000E+000, -6.206274E+001, -7.376523E-002, -1.788964E-001,  3.200220E-001
 -2.567140E+001, -1.765955E+002,  0.000000E+000, -5.028085E+001, -1.235215E-001,  5.400550E-001,  3.200901E-001
 -3.403682E+001, -1.884406E+002,  0.000000E+000, -3.757889E+001, -1.849862E-001,  1.306062E+000,  3.203222E-001
 -4.273388E+001, -1.999286E+002,  0.000000E+000, -2.425340E+001, -2.076055E-001,  2.066487E+000,  3.200205E-001
 -4.949139E+001, -2.084252E+002,  0.000000E+000, -1.245887E+001, -1.367434E-001,  2.695102E+000,  3.203187E-001
 -5.147449E+001, -2.112729E+002,  0.000000E+000, -4.361428E+000,  1.234151E-001,  2.995062E+000,  3.202654E-001
 -5.022946E+001, -2.106438E+002,  0.000000E+000,  3.062282E+000,  3.761848E-001,  3.029209E+000,  3.202290E-001
 -4.495803E+001, -2.057496E+002,  0.000000E+000,  1.299468E+001,  3.990892E-001,  2.641124E+000,  3.200579E-001
 -3.553998E+001, -1.958769E+002,  0.000000E+000,  2.638055E+001,  3.398736E-001,  1.905333E+000,  3.200005E-001
 -2.589970E+001, -1.847670E+002,  0.000000E+000,  3.984742E+001,  2.991629E-001,  1.082744E+000,  3.204377E-001
 -1.727190E+001, -1.734343E+002,  0.000000E+000,  5.267263E+001,  3.423502E-001,  3.116708E-001,  3.201617E-001
 -1.038542E+001, -1.624055E+002,  0.000000E+000,  6.443052E+001,  2.756646E-001, -4.114739E-001,  3.205933E-001
 -5.354185E+000, -1.517664E+002,  0.000000E+000,  7.498367E+001,  2.174839E-001, -1.023624E+000,  3.205706E-001
 -2.349152E+000, -1.419338E+002,  0.000000E+000,  8.391928E+001,  2.310454E-001, -1.469409E+000,  3.203023E-001
 -1.142865E+000, -1.327930E+002,  0.000000E+000,  9.150018E+001,  1.696101E-001, -1.793120E+000,  3.205538E-001
 -7.960668E-001, -1.240227E+002,  0.000000E+000,  9.827191E+001, -7.670340E-003, -2.035516E+000,  3.201662E-001
 -2.721303E+000, -1.159103E+002,  0.000000E+000, -1.013448E+002,  6.850126E-001, -1.719488E+000,  3.205550E-001
  8.215483E-001, -1.144928E+002,  0.000000E+000,  1.045950E+002, -3.605169E-001, -2.216198E+000,  3.206144E-001
 -1.252509E+000, -1.049567E+002,  0.000000E+000, -1.072518E+002,  1.194654E+000, -1.596412E+000,  3.205665E-001
  1.919044E+000, -1.038640E+002,  0.000000E+000,  1.110501E+002, -8.624218E-001, -2.229973E+000,  3.204355E-001
  6.742890E-001, -9.216641E+001,  0.000000E+000, -1.134139E+002,  1.897837E+000, -1.357890E+000,  3.205915E-001
  3.558961E+000, -9.157553E+001,  0.000000E+000,  1.177146E+002, -1.496477E+000, -2.130380E+000,  3.200093E-001
  2.875238E+000, -7.785095E+001,  0.000000E+000, -1.198040E+002,  2.799329E+000, -1.051507E+000,  3.204861E-001
  5.570096E+000, -7.776720E+001,  0.000000E+000,  1.246249E+002, -2.335214E+000, -1.883148E+000,  3.201158E-001
  5.147517E+000, -6.209594E+001,  0.000000E+000, -1.263565E+002,  3.847007E+000, -6.711128E-001,  3.200500E-001
  7.750981E+000, -6.283625E+001,  0.000000E+000,  1.314198E+002, -3.379011E+000, -1.416115E+000,  3.201232E-001
  7.484115E+000, -4.494914E+001,  0.000000E+000, -1.329391E+002,  4.976244E+000, -2.582637E-001,  3.201229E-001
  1.028415E+001, -4.694732E+001,  0.000000E+000,  1.378505E+002, -4.625797E+000, -8.035941E-001,  3.204437E-001
  9.931211E+000, -2.706622E+001,  0.000000E+000, -1.390724E+002,  6.136698E+000,  1.549435E-001,  3.204186E-001
  1.339274E+001, -3.074724E+001,  0.000000E+000,  1.433762E+002, -5.984669E+000, -1.739976E-001,  3.201966E-001
  1.269535E+001, -9.744583E+000,  0.000000E+000, -1.441401E+002,  7.157143E+000,  7.028032E-001,  3.202566E-001
  1.744291E+001, -1.557937E+001,  0.000000E+000,  1.471620E+002, -7.141933E+000,  3.869732E-001,  3.201032E-001
  1.581605E+001,  5.412338E+000,  0.000000E+000, -1.473927E+002,  7.778200E+000,  1.375167E+000,  3.200708E-001
  2.230928E+001, -2.026322E+000,  0.000000E+000,  1.487847E+002, -7.666673E+000,  8.800949E-001,  3.202095E-001
  1.891153E+001,  1.776294E+001,  0.000000E+000, -1.486068E+002,  7.861973E+000,  2.020383E+000,  3.205264E-001
  2.649604E+001,  1.028783E+001,  0.000000E+000,  1.491495E+002, -7.773031E+000,  1.506231E+000,  3.204029E-001
  2.076607E+001,  2.831500E+001,  0.000000E+000, -1.486071E+002,  7.322441E+000,  2.676566E+000,  3.205567E-001
  2.928896E+001,  2.173892E+001,  0.000000E+000,  1.485345E+002, -7.385664E+000,  2.148953E+000,  3.202536E-001
  2.204309E+001,  3.907238E+001,  0.000000E+000, -1.474766E+002,  6.340999E+000,  3.134588E+000,  3.204230E-001
  3.141292E+001,  3.425656E+001,  0.000000E+000,  1.464058E+002, -6.289904E+000,  2.535078E+000,  3.206622E-001
  2.432599E+001,  5.216827E+001,  0.000000E+000, -1.430890E+002,  4.615710E+000,  3.087845E+000,  3.200316E-001
  3.393143E+001,  4.973374E+001,  0.000000E+000,  1.411166E+002, -4.493750E+000,  2.508191E+000,  3.202202E-001
  2.750563E+001,  6.688269E+001,  0.000000E+000, -1.363776E+002,  2.949727E+000,  2.864025E+000,  3.201971E-001
  3.634014E+001,  6.615221E+001,  0.000000E+000,  1.339291E+002, -2.827319E+000,  2.121288E+000,  3.204000E-001
  3.074225E+001,  8.159801E+001,  0.000000E+000, -1.287775E+002,  1.565780E+000,  2.542602E+000,  3.205474E-001
  3.831420E+001,  8.218571E+001,  0.000000E+000,  1.259395E+002, -1.567494E+000,  1.700679E+000,  3.201960E-001
  7.121538E+000, -1.215802E+002,  0.000000E+000, -9.407070E+001,  8.885526E-001, -1.902876E+000,  3.201491E-001
  7.108668E+000, -1.289545E+002,  0.000000E+000, -8.884599E+001,  7.810062E-001, -1.863788E+000,  3.204310E-001
  5.213041E+000, -1.369917E+002,  0.000000E+000, -8.239428E+001,  7.679202E-001, -1.658299E+000,  3.201938E-001
  1.037862E+000, -1.463350E+002,  0.000000E+000, -7.387613E+001,  7.704180E-001, -1.284454E+000,  3.201945E-001
 -4.721641E+000, -1.565782E+002,  0.000000E+000, -6.373766E+001,  6.856301E-001, -7.646843E-001,  3.202525E-001
 -1.149951E+001, -1.672595E+002,  0.000000E+000, -5.241894E+001,  5.164717E-001, -1.216579E-001,  3.201065E-001
 -1.888811E+001, -1.781368E+002,  0.000000E+000, -4.002441E+001,  4.100715E-001,  6.235925E-001,  3.202999E-001
 -2.655483E+001, -1.886974E+002,  0.000000E+000, -2.686673E+001,  3.133682E-001,  1.355255E+000,  3.202493E-001
 -3.320919E+001, -1.975124E+002,  0.000000E+000, -1.387599E+001,  2.533124E-001,  2.018561E+000,  3.200581E-001
 -3.551994E+001, -2.009868E+002,  0.000000E+000, -4.283372E+000,  3.313947E-001,  2.330740E+000,  3.201295E-001
 -3.414900E+001, -2.002687E+002,  0.000000E+000,  4.402830E+000,  3.415054E-001,  2.308161E+000,  3.201873E-001
 -2.809757E+001, -1.944142E+002,  0.000000E+000,  1.618818E+001,  1.381794E-001,  1.922951E+000,  3.202213E-001
 -1.945351E+001, -1.851032E+002,  0.000000E+000,  2.978366E+001, -6.349898E-002,  1.264067E+000,  3.201445E-001
 -1.085489E+001, -1.750443E+002,  0.000000E+000,  4.291093E+001, -2.344123E-001,  5.053684E-001,  3.201018E-001
 -3.007615E+000, -1.648226E+002,  0.000000E+000,  5.508236E+001, -3.830944E-001, -2.371717E-001,  3.204924E-001
  3.663578E+000, -1.548180E+002,  0.000000E+000,  6.612659E+001, -4.765691E-001, -9.396529E-001,  3.202380E-001
  8.616433E+000, -1.453881E+002,  0.000000E+000,  7.585118E+001, -3.814498E-001, -1.558521E+000,  3.202193E-001
  1.102476E+001, -1.369326E+002,  0.000000E+000,  8.366792E+001, -2.342675E-001, -1.955516E+000,  3.206168E-001
  1.118421E+001, -1.290073E+002,  0.000000E+000,  9.018997E+001, -2.818930E-001, -2.143367E+000,  3.201020E-001
  1.038583E+001, -1.210826E+002,  0.000000E+000,  9.630740E+001, -4.654750E-001, -2.241554E+000,  3.200550E-001
  9.963702E+000, -1.119975E+002,  0.000000E+000, -9.878750E+001,  1.255906E+000, -1.880989E+000,  3.202159E-001
  1.264663E+001, -1.113615E+002,  0.000000E+000,  1.017622E+002, -8.628101E-001, -2.326613E+000,  3.204246E-001
  1.294302E+001, -1.007084E+002,  0.000000E+000, -1.040239E+002,  1.778967E+000, -1.756344E+000,  3.206685E-001
  1.530531E+001, -1.001427E+002,  0.000000E+000,  1.075694E+002, -1.432920E+000, -2.335327E+000,  3.203958E-001
  1.592280E+001, -8.800969E+001,  0.000000E+000, -1.096461E+002,  2.513938E+000, -1.518548E+000,  3.205553E-001
  1.812443E+001, -8.761070E+001,  0.000000E+000,  1.137096E+002, -2.166169E+000, -2.243420E+000,  3.204078E-001
  1.895480E+001, -7.390407E+001,  0.000000E+000, -1.155706E+002,  3.454581E+000, -1.132957E+000,  3.206554E-001
  2.108467E+001, -7.385654E+001,  0.000000E+000,  1.200971E+002, -3.040827E+000, -1.994909E+000,  3.204349E-001
  2.213672E+001, -5.842821E+001,  0.000000E+000, -1.216754E+002,  4.523602E+000, -6.249788E-001,  3.201558E-001
  2.421389E+001, -5.897887E+001,  0.000000E+000,  1.264705E+002, -4.153406E+000, -1.458486E+000,  3.205551E-001
  2.520682E+001, -4.171848E+001,  0.000000E+000, -1.278201E+002,  5.679787E+000, -4.538615E-002,  3.202248E-001
  2.746941E+001, -4.312046E+001,  0.000000E+000,  1.326326E+002, -5.428003E+000, -6.904997E-001,  3.203841E-001
  2.780770E+001, -2.445425E+001,  0.000000E+000, -1.337316E+002,  6.790698E+000,  5.733081E-001,  3.204862E-001
  3.048610E+001, -2.710397E+001,  0.000000E+000,  1.382486E+002, -6.707646E+000,  1.847068E-001,  3.205808E-001
  2.957883E+001, -7.607481E+000,  0.000000E+000, -1.390318E+002,  7.666625E+000,  1.377813E+000,  3.205979E-001
  3.319853E+001, -1.171315E+001,  0.000000E+000,  1.428702E+002, -7.633173E+000,  1.080421E+000,  3.203096E-001
  3.020671E+001,  6.958565E+000,  0.000000E+000, -1.430962E+002,  8.114313E+000,  2.330014E+000,  3.200770E-001
  3.528090E+001,  1.322011E+000,  0.000000E+000,  1.458578E+002, -8.054550E+000,  1.878935E+000,  3.202836E-001
  2.967951E+001,  1.842300E+001,  0.000000E+000, -1.455455E+002,  7.953048E+000,  3.225040E+000,  3.202727E-001
  3.627725E+001,  1.189547E+001,  0.000000E+000,  1.470607E+002, -7.811328E+000,  2.547705E+000,  3.201461E-001
  2.948920E+001,  2.840209E+001,  0.000000E+000, -1.463272E+002,  7.292292E+000,  3.829670E+000,  3.200790E-001
  3.711822E+001,  2.239640E+001,  0.000000E+000,  1.471032E+002, -7.279460E+000,  3.170064E+000,  3.207717E-001
  3.071283E+001,  3.969729E+001,  0.000000E+000, -1.443190E+002,  6.117753E+000,  4.148605E+000,  3.206051E-001
  3.918208E+001,  3.524564E+001,  0.000000E+000,  1.441697E+002, -6.061827E+000,  3.488525E+000,  3.205201E-001
  3.355732E+001,  5.349279E+001,  0.000000E+000, -1.393622E+002,  4.701282E+000,  3.906555E+000,  3.205566E-001
  4.227816E+001,  5.077178E+001,  0.000000E+000,  1.384261E+002, -4.536819E+000,  3.313453E+000,  3.201297E-001
  3.713836E+001,  6.823511E+001,  0.000000E+000, -1.327109E+002,  3.158793E+000,  3.392976E+000,  3.201280E-001
  4.562009E+001,  6.708516E+001,  0.000000E+000,  1.312802E+002, -3.016716E+000,  2.726398E+000,  3.205364E-001
  4.072881E+001,  8.285900E+001,  0.000000E+000, -1.252819E+002,  1.795584E+000,  2.879135E+000,  3.202753E-001
  4.874583E+001,  8.279313E+001,  0.000000E+000,  1.235721E+002, -1.700499E+000,  2.090593E+000,  3.201849E-001
  4.405997E+001,  9.655264E+001,  0.000000E+000, -1.177033E+002,  6.657853E-001,  2.348866E+000,  3.203911E-001
  5.128317E+001,  9.736041E+001,  0.000000E+000,  1.157568E+002, -6.884645E-001,  1.507076E+000,  3.201413E-001
  4.695857E+001,  1.090295E+002,  0.000000E+000, -1.101602E+002, -1.687613E-001,  1.809901E+000,  3.204017E-001
  5.311300E+001,  1.105596E+002,  0.000000E+000,  1.079870E+002,  4.636132E-003,  1.033040E+000,  3.203435E-001
  4.912869E+001,  1.201611E+002,  0.000000E+000, -1.027571E+002, -6.539747E-001,  1.261881E+000,  3.202906E-001
  5.455991E+001,  1.222251E+002,  0.000000E+000,  1.004806E+002,  4.685924E-001,  6.440747E-001,  3.200725E-001
  1.951855E+001, -1.159646E+002,  0.000000E+000, -9.206393E+001,  1.498184E+000, -2.166250E+000,  3.200232E-001
  1.958556E+001, -1.222549E+002,  0.000000E+000, -8.762208E+001,  1.499251E+000, -2.208651E+000,  3.206300E-001
  1.810492E+001, -1.290266E+002,  0.000000E+000, -8.224616E+001,  1.554270E+000, -2.102794E+000,  3.203512E-001
  1.449778E+001, -1.373613E+002,  0.000000E+000, -7.449776E+001,  1.511353E+000, -1.823758E+000,  3.202641E-001
  9.455886E+000, -1.466567E+002,  0.000000E+000, -6.490765E+001,  1.382402E+000, -1.382728E+000,  3.202894E-001
  3.554941E+000, -1.564085E+002,  0.000000E+000, -5.393907E+001,  1.216787E+000, -7.836014E-001,  3.200358E-001
 -2.835615E+000, -1.662962E+002,  0.000000E+000, -4.189240E+001,  1.048654E+000, -1.062408E-001,  3.203764E-001
 -9.522707E+000, -1.759240E+002,  0.000000E+000, -2.896556E+001,  8.697391E-001,  6.054189E-001,  3.201691E-001
 -1.576111E+001, -1.844965E+002,  0.000000E+000, -1.559762E+001,  6.870310E-001,  1.238809E+000,  3.205557E-001
 -1.885367E+001, -1.889937E+002,  0.000000E+000, -4.277058E+000,  5.756896E-001,  1.587094E+000,  3.202771E-001
 -1.687895E+001, -1.877712E+002,  0.000000E+000,  6.034776E+000,  3.249904E-001,  1.501574E+000,  3.204212E-001
 -1.029555E+001, -1.812177E+002,  0.000000E+000,  1.913194E+001, -1.004375E-001,  1.083438E+000,  3.204265E-001
 -2.590663E+000, -1.727762E+002,  0.000000E+000,  3.256836E+001, -4.775144E-001,  5.116114E-001,  3.201814E-001
  4.915299E+000, -1.637706E+002,  0.000000E+000,  4.527495E+001, -7.476961E-001, -1.036844E-001,  3.203429E-001
  1.175126E+001, -1.546218E+002,  0.000000E+000,  5.689708E+001, -1.023078E+000, -7.767643E-001,  3.200606E-001
  1.759277E+001, -1.456769E+002,  0.000000E+000,  6.734988E+001, -1.175162E+000, -1.430016E+000,  3.200228E-001
  2.184796E+001, -1.373926E+002,  0.000000E+000,  7.619935E+001, -1.137122E+000, -1.960984E+000,  3.204686E-001
  2.359796E+001, -1.302893E+002,  0.000000E+000,  8.266029E+001, -9.329210E-001, -2.269352E+000,  3.201787E-001
  2.345587E+001, -1.235356E+002,  0.000000E+000,  8.811213E+001, -8.882367E-001, -2.411686E+000,  3.202893E-001
  2.246901E+001, -1.163665E+002,  0.000000E+000,  9.371066E+001, -1.030352E+000, -2.453851E+000,  3.204863E-001
  2.349308E+001, -1.065587E+002,  0.000000E+000, -9.609856E+001,  1.859318E+000, -2.147944E+000,  3.203706E-001
  2.582438E+001, -1.065437E+002,  0.000000E+000,  9.854452E+001, -1.506239E+000, -2.561357E+000,  3.202221E-001
  2.726643E+001, -9.572085E+001,  0.000000E+000, -1.007102E+002,  2.390285E+000, -2.000673E+000,  3.205936E-001
  2.922606E+001, -9.543378E+001,  0.000000E+000,  1.038424E+002, -2.134577E+000, -2.553065E+000,  3.203528E-001
  3.095577E+001, -8.339444E+001,  0.000000E+000, -1.058136E+002,  3.101481E+000, -1.726371E+000,  3.201122E-001
  3.271219E+001, -8.315594E+001,  0.000000E+000,  1.094613E+002, -2.872578E+000, -2.409505E+000,  3.203308E-001
  3.469226E+001, -6.960898E+001,  0.000000E+000, -1.112530E+002,  4.035551E+000, -1.247465E+000,  3.206249E-001
  3.638604E+001, -6.953497E+001,  0.000000E+000,  1.153514E+002, -3.780213E+000, -2.064988E+000,  3.204450E-001
  3.840242E+001, -5.457046E+001,  0.000000E+000, -1.169004E+002,  5.125215E+000, -6.343088E-001,  3.205712E-001
  4.012372E+001, -5.490517E+001,  0.000000E+000,  1.212927E+002, -4.871723E+000, -1.471547E+000,  3.202431E-001
  4.167107E+001, -3.881704E+001,  0.000000E+000, -1.225585E+002,  6.230362E+000,  9.883599E-002,  3.202589E-001
  4.346207E+001, -3.980764E+001,  0.000000E+000,  1.270749E+002, -6.142743E+000, -5.687376E-001,  3.202463E-001
  4.397375E+001, -2.282996E+001,  0.000000E+000, -1.280644E+002,  7.179853E+000,  9.780523E-001,  3.203408E-001
  4.606934E+001, -2.470444E+001,  0.000000E+000,  1.324940E+002, -7.170163E+000,  5.678821E-001,  3.203309E-001
  4.451958E+001, -7.771344E+000,  0.000000E+000, -1.331571E+002,  7.899580E+000,  2.090975E+000,  3.203658E-001
  4.736002E+001, -1.051660E+001,  0.000000E+000,  1.372673E+002, -7.864134E+000,  1.796073E+000,  3.201360E-001
  4.286099E+001,  5.135738E+000,  0.000000E+000, -1.374985E+002,  8.179214E+000,  3.421578E+000,  3.205167E-001
  4.656956E+001,  1.088315E+000,  0.000000E+000,  1.409696E+002, -8.028038E+000,  2.925391E+000,  3.204872E-001
  4.091082E+001,  1.699393E+001,  0.000000E+000, -1.406548E+002,  7.936501E+000,  4.768701E+000,  3.206808E-001
  4.588005E+001,  1.165532E+001,  0.000000E+000,  1.432023E+002, -7.838319E+000,  3.909686E+000,  3.201931E-001
  3.981637E+001,  2.798824E+001,  0.000000E+000, -1.415127E+002,  7.179766E+000,  5.508753E+000,  3.204314E-001
  4.624675E+001,  2.292675E+001,  0.000000E+000,  1.428659E+002, -7.055326E+000,  4.398870E+000,  3.201098E-001
  4.103694E+001,  4.078026E+001,  0.000000E+000, -1.389944E+002,  5.909772E+000,  5.296404E+000,  3.200787E-001
  4.825499E+001,  3.665240E+001,  0.000000E+000,  1.395757E+002, -5.875029E+000,  4.487118E+000,  3.201327E-001
  4.372960E+001,  5.501579E+001,  0.000000E+000, -1.341123E+002,  4.487376E+000,  4.780538E+000,  3.203362E-001
  5.131372E+001,  5.222691E+001,  0.000000E+000,  1.340110E+002, -4.514701E+000,  4.073435E+000,  3.203368E-001
  4.704027E+001,  6.968455E+001,  0.000000E+000, -1.278016E+002,  3.145571E+000,  4.012861E+000,  3.200150E-001
  5.464443E+001,  6.830752E+001,  0.000000E+000,  1.271532E+002, -3.234351E+000,  3.355764E+000,  3.202829E-001
  5.039031E+001,  8.401773E+001,  0.000000E+000, -1.208481E+002,  1.954152E+000,  3.257789E+000,  3.205645E-001
  5.787622E+001,  8.368753E+001,  0.000000E+000,  1.197898E+002, -2.053247E+000,  2.601779E+000,  3.201346E-001
  5.361195E+001,  9.752161E+001,  0.000000E+000, -1.136239E+002,  9.194198E-001,  2.590486E+000,  3.200470E-001
  6.077079E+001,  9.795824E+001,  0.000000E+000,  1.123964E+002, -1.027215E+000,  1.884896E+000,  3.204087E-001
  5.652363E+001,  1.098822E+002,  0.000000E+000, -1.065059E+002,  7.424515E-002,  1.943873E+000,  3.202352E-001
  6.335731E+001,  1.110048E+002,  0.000000E+000,  1.049954E+002, -2.123163E-001,  1.229567E+000,  3.200227E-001
  5.920976E+001,  1.209197E+002,  0.000000E+000, -9.952694E+001, -5.663931E-001,  1.301441E+000,  3.200275E-001
  6.529122E+001,  1.226628E+002,  0.000000E+000,  9.782616E+001,  3.602269E-001,  6.971617E-001,  3.205209E-001
  6.146103E+001,  1.309245E+002,  0.000000E+000, -9.272777E+001, -9.746335E-001,  7.300440E-001,  3.201326E-001
  6.760588E+001,  1.412691E+002,  0.000000E+000, -8.414047E+001, -1.174964E+000,  2.516221E-001,  3.201144E-001
  7.442663E+001,  1.525278E+002,  0.000000E+000, -7.450410E+001, -1.331269E+000, -2.638009E-001,  3.203627E-001
  8.194517E+001,  1.645301E+002,  0.000000E+000, -6.382552E+001, -1.476407E+000, -8.123576E-001,  3.203738E-001
  9.018224E+001,  1.773438E+002,  0.000000E+000, -5.203831E+001, -1.552256E+000, -1.413549E+000,  3.205542E-001
  9.910046E+001,  1.909452E+002,  0.000000E+000, -3.914035E+001, -1.603543E+000, -2.084068E+000,  3.205542E-001
  1.086263E+002,  2.049969E+002,  0.000000E+000, -2.529293E+001, -1.609312E+000, -2.872108E+000,  3.205446E-001
  1.180122E+002,  2.181895E+002,  0.000000E+000, -1.149525E+001, -1.512198E+000, -3.836909E+000,  3.205119E-001
  1.230084E+002,  2.243076E+002,  0.000000E+000, -3.709356E+000, -9.722879E-001, -4.811844E+000,  3.205287E-001
  1.245615E+002,  2.262924E+002,  0.000000E+000,  3.484473E-001, -1.346564E-001, -5.449143E+000,  3.200103E-001
  1.245186E+002,  2.266185E+002,  0.000000E+000,  3.569501E+000,  7.375435E-001, -5.645003E+000,  3.203225E-001
  1.230242E+002,  2.252642E+002,  0.000000E+000,  7.095028E+000,  1.537458E+000, -5.297683E+000,  3.202687E-001
  1.192543E+002,  2.211055E+002,  0.000000E+000,  1.269001E+001,  2.102288E+000, -4.401302E+000,  3.200133E-001
  1.111288E+002,  2.092440E+002,  0.000000E+000,  2.473995E+001,  2.139666E+000, -3.213219E+000,  3.201270E-001
  1.021862E+002,  1.950619E+002,  0.000000E+000,  3.806814E+001,  2.014680E+000, -2.329489E+000,  3.200158E-001
  9.376465E+001,  1.810143E+002,  0.000000E+000,  5.070739E+001,  1.780867E+000, -1.651367E+000,  3.202802E-001
  8.603242E+001,  1.677452E+002,  0.000000E+000,  6.229466E+001,  1.504830E+000, -1.063869E+000,  3.202632E-001
  7.896001E+001,  1.553609E+002,  0.000000E+000,  7.282692E+001,  1.265486E+000, -5.638454E-001,  3.200798E-001
  7.255884E+001,  1.438570E+002,  0.000000E+000,  8.232374E+001,  9.897072E-001, -1.147344E-001,  3.200079E-001
  6.685895E+001,  1.332235E+002,  0.000000E+000,  9.078414E+001,  7.333217E-001,  2.472273E-001,  3.203336E-001
  3.167488E+001, -1.096556E+002,  0.000000E+000, -9.021604E+001,  2.117348E+000, -2.469854E+000,  3.204773E-001
  3.203964E+001, -1.145652E+002,  0.000000E+000, -8.641524E+001,  2.195988E+000, -2.558368E+000,  3.203228E-001
  3.127919E+001, -1.199898E+002,  0.000000E+000, -8.175363E+001,  2.279377E+000, -2.546067E+000,  3.204351E-001
  2.850692E+001, -1.271711E+002,  0.000000E+000, -7.468379E+001,  2.218264E+000, -2.334940E+000,  3.202967E-001
  2.421899E+001, -1.355367E+002,  0.000000E+000, -6.555011E+001,  2.091906E+000, -1.982348E+000,  3.201857E-001
  1.910184E+001, -1.444206E+002,  0.000000E+000, -5.492860E+001,  1.894517E+000, -1.455967E+000,  3.201683E-001
  1.346257E+001, -1.534381E+002,  0.000000E+000, -4.328810E+001,  1.681100E+000, -8.221755E-001,  3.202905E-001
  7.611667E+000, -1.622268E+002,  0.000000E+000, -3.065542E+001,  1.469934E+000, -1.322331E-001,  3.201214E-001
  1.936142E+000, -1.703147E+002,  0.000000E+000, -1.734826E+001,  1.182242E+000,  4.412871E-001,  3.203635E-001
 -1.649042E+000, -1.755107E+002,  0.000000E+000, -4.343303E+000,  8.387001E-001,  7.788256E-001,  3.203356E-001
  1.035265E+000, -1.736522E+002,  0.000000E+000,  8.206502E+000,  3.618725E-001,  6.750665E-001,  3.200727E-001
  7.429546E+000, -1.671855E+002,  0.000000E+000,  2.172182E+001, -2.537636E-001,  2.444514E-001,  3.202748E-001
  1.436057E+001, -1.595241E+002,  0.000000E+000,  3.481125E+001, -7.648145E-001, -2.387260E-001,  3.203294E-001
  2.098993E+001, -1.513906E+002,  0.000000E+000,  4.703724E+001, -1.239850E+000, -7.998788E-001,  3.200189E-001
  2.699126E+001, -1.431516E+002,  0.000000E+000,  5.817388E+001, -1.592818E+000, -1.400065E+000,  3.201151E-001
  3.207554E+001, -1.351147E+002,  0.000000E+000,  6.804417E+001, -1.808308E+000, -1.969130E+000,  3.203381E-001
  3.549957E+001, -1.279120E+002,  0.000000E+000,  7.597645E+001, -1.834510E+000, -2.383613E+000,  3.201508E-001
  3.651534E+001, -1.222485E+002,  0.000000E+000,  8.144362E+001, -1.700751E+000, -2.627275E+000,  3.206333E-001
  3.599455E+001, -1.169148E+002,  0.000000E+000,  8.606690E+001, -1.593838E+000, -2.723037E+000,  3.205293E-001
  3.458042E+001, -1.109183E+002,  0.000000E+000,  9.112976E+001, -1.671167E+000, -2.732037E+000,  3.203551E-001
  3.631221E+001, -1.007824E+002,  0.000000E+000, -9.359594E+001,  2.466994E+000, -2.417108E+000,  3.201727E-001
  3.855650E+001, -1.013773E+002,  0.000000E+000,  9.539925E+001, -2.172422E+000, -2.780729E+000,  3.205147E-001
  4.078584E+001, -9.046371E+001,  0.000000E+000, -9.757895E+001,  2.974392E+000, -2.223048E+000,  3.204071E-001
  4.257510E+001, -9.054420E+001,  0.000000E+000,  1.001621E+002, -2.774989E+000, -2.728346E+000,  3.202300E-001
  4.519394E+001, -7.857505E+001,  0.000000E+000, -1.020866E+002,  3.664551E+000, -1.853650E+000,  3.200617E-001
  4.673289E+001, -7.842328E+001,  0.000000E+000,  1.052420E+002, -3.520147E+000, -2.476994E+000,  3.200700E-001
  4.944960E+001, -6.530046E+001,  0.000000E+000, -1.070104E+002,  4.584436E+000, -1.322490E+000,  3.206245E-001
  5.086489E+001, -6.521489E+001,  0.000000E+000,  1.106306E+002, -4.441545E+000, -2.059532E+000,  3.204410E-001
  5.328692E+001, -5.113846E+001,  0.000000E+000, -1.121301E+002,  5.594187E+000, -6.126686E-001,  3.200876E-001
  5.465251E+001, -5.131037E+001,  0.000000E+000,  1.161034E+002, -5.514978E+000, -1.364086E+000,  3.205523E-001
  5.644839E+001, -3.646335E+001,  0.000000E+000, -1.173140E+002,  6.539061E+000,  3.192045E-001,  3.201570E-001
  5.777815E+001, -3.725542E+001,  0.000000E+000,  1.214281E+002, -6.543584E+000, -3.454928E-001,  3.202202E-001
  5.800786E+001, -2.243945E+001,  0.000000E+000, -1.222833E+002,  7.317484E+000,  1.461495E+000,  3.206076E-001
  5.955867E+001, -2.373658E+001,  0.000000E+000,  1.265059E+002, -7.365105E+000,  1.013937E+000,  3.200500E-001
  5.693588E+001, -9.963940E+000,  0.000000E+000, -1.269952E+002,  7.888469E+000,  2.890463E+000,  3.200769E-001
  5.884216E+001, -1.194932E+001,  0.000000E+000,  1.311428E+002, -7.846477E+000,  2.613081E+000,  3.201682E-001
  5.460187E+001,  2.178757E+000,  0.000000E+000, -1.313076E+002,  8.109203E+000,  4.643302E+000,  3.200842E-001
  5.738104E+001, -6.221949E-001,  0.000000E+000,  1.350962E+002, -7.954983E+000,  4.129182E+000,  3.205629E-001
  5.185346E+001,  1.400493E+001,  0.000000E+000, -1.347515E+002,  7.813021E+000,  6.312063E+000,  3.200702E-001
  5.589994E+001,  1.052243E+001,  0.000000E+000,  1.377433E+002, -7.711535E+000,  5.420337E+000,  3.204574E-001
  5.067982E+001,  2.743516E+001,  0.000000E+000, -1.354095E+002,  6.920595E+000,  7.171358E+000,  3.203492E-001
  5.603968E+001,  2.333922E+001,  0.000000E+000,  1.371968E+002, -6.812752E+000,  5.820686E+000,  3.205458E-001
  5.183601E+001,  4.166155E+001,  0.000000E+000, -1.327629E+002,  5.648991E+000,  6.707669E+000,  3.203609E-001
  5.783282E+001,  3.800790E+001,  0.000000E+000,  1.339004E+002, -5.648911E+000,  5.519677E+000,  3.204996E-001
  5.418389E+001,  5.633435E+001,  0.000000E+000, -1.281268E+002,  4.286168E+000,  5.786620E+000,  3.203093E-001
  6.061975E+001,  5.363097E+001,  0.000000E+000,  1.285483E+002, -4.448900E+000,  4.822570E+000,  3.200402E-001
  5.702788E+001,  7.095040E+001,  0.000000E+000, -1.222291E+002,  3.078336E+000,  4.734977E+000,  3.201317E-001
  6.364895E+001,  6.941122E+001,  0.000000E+000,  1.221179E+002, -3.300316E+000,  3.970992E+000,  3.200954E-001
  5.994050E+001,  8.500211E+001,  0.000000E+000, -1.157836E+002,  1.969054E+000,  3.769502E+000,  3.205351E-001
  6.657270E+001,  8.446497E+001,  0.000000E+000,  1.152764E+002, -2.239053E+000,  3.115856E+000,  3.203731E-001
  6.280000E+001,  9.830969E+001,  0.000000E+000, -1.090617E+002,  1.067526E+000,  2.951631E+000,  3.204593E-001
  6.934950E+001,  9.851779E+001,  0.000000E+000,  1.082486E+002, -1.306794E+000,  2.321512E+000,  3.201637E-001
  6.560001E+001,  1.105982E+002,  0.000000E+000, -1.022184E+002,  3.190086E-001,  2.220464E+000,  3.204304E-001
  7.199215E+001,  1.114764E+002,  0.000000E+000,  1.011972E+002, -5.417162E-001,  1.615132E+000,  3.204038E-001
  6.828925E+001,  1.216947E+002,  0.000000E+000, -9.548351E+001, -2.564709E-001,  1.540335E+000,  3.204249E-001
  7.447786E+001,  1.230896E+002,  0.000000E+000,  9.427312E+001,  5.849130E-002,  1.017145E+000,  3.202005E-001
  7.079642E+001,  1.316351E+002,  0.000000E+000, -8.902735E+001, -7.061010E-001,  9.568263E-001,  3.202475E-001
  7.762446E+001,  1.418001E+002,  0.000000E+000, -8.042013E+001, -9.749894E-001,  4.954995E-001,  3.202876E-001
  8.512926E+001,  1.528314E+002,  0.000000E+000, -7.085670E+001, -1.227898E+000, -2.543132E-002,  3.202228E-001
  9.336058E+001,  1.647055E+002,  0.000000E+000, -6.029911E+001, -1.409811E+000, -5.764178E-001,  3.200638E-001
  1.023211E+002,  1.773903E+002,  0.000000E+000, -4.870779E+001, -1.555785E+000, -1.149656E+000,  3.204179E-001
  1.120097E+002,  1.907953E+002,  0.000000E+000, -3.605101E+001, -1.645580E+000, -1.766362E+000,  3.200452E-001
  1.222889E+002,  2.046571E+002,  0.000000E+000, -2.251714E+001, -1.693842E+000, -2.474975E+000,  3.202114E-001
  1.319521E+002,  2.172337E+002,  0.000000E+000, -9.484431E+000, -1.641431E+000, -3.385979E+000,  3.200390E-001
  1.360828E+002,  2.222631E+002,  0.000000E+000, -3.118582E+000, -1.113008E+000, -4.258808E+000,  3.205513E-001
  1.373616E+002,  2.240838E+002,  0.000000E+000,  4.021821E-001, -3.398161E-001, -4.877296E+000,  3.205297E-001
  1.372809E+002,  2.243232E+002,  0.000000E+000,  3.291970E+000,  4.734077E-001, -5.069104E+000,  3.204146E-001
  1.359208E+002,  2.231537E+002,  0.000000E+000,  6.357553E+000,  1.246386E+000, -4.738690E+000,  3.204402E-001
  1.326234E+002,  2.197133E+002,  0.000000E+000,  1.113928E+001,  1.875334E+000, -3.934712E+000,  3.202493E-001
  1.244975E+002,  2.085494E+002,  0.000000E+000,  2.240731E+001,  1.948107E+000, -2.827222E+000,  3.200877E-001
  1.149728E+002,  1.945698E+002,  0.000000E+000,  3.544940E+001,  1.800189E+000, -2.040614E+000,  3.202650E-001
  1.058698E+002,  1.807109E+002,  0.000000E+000,  4.787997E+001,  1.610663E+000, -1.441188E+000,  3.201374E-001
  9.752214E+001,  1.676221E+002,  0.000000E+000,  5.928013E+001,  1.355958E+000, -8.990107E-001,  3.203444E-001
  8.987986E+001,  1.554189E+002,  0.000000E+000,  6.966456E+001,  1.078881E+000, -3.942502E-001,  3.202136E-001
  8.288203E+001,  1.440815E+002,  0.000000E+000,  7.912088E+001,  7.876494E-001,  5.463038E-002,  3.204004E-001
  7.655518E+001,  1.335857E+002,  0.000000E+000,  8.765300E+001,  5.062816E-001,  4.576281E-001,  3.204669E-001
  4.295475E+001, -1.031229E+002,  0.000000E+000, -8.863571E+001,  2.754950E+000, -2.731259E+000,  3.204614E-001
  4.364521E+001, -1.069746E+002,  0.000000E+000, -8.520776E+001,  2.871052E+000, -2.873403E+000,  3.202759E-001
  4.357579E+001, -1.112571E+002,  0.000000E+000, -8.101600E+001,  2.969895E+000, -2.933734E+000,  3.202879E-001
  4.178253E+001, -1.171945E+002,  0.000000E+000, -7.461160E+001,  2.915632E+000, -2.815813E+000,  3.205737E-001
  3.830058E+001, -1.245939E+002,  0.000000E+000, -6.586581E+001,  2.774694E+000, -2.528263E+000,  3.203599E-001
  3.398185E+001, -1.325321E+002,  0.000000E+000, -5.562745E+001,  2.567068E+000, -2.068898E+000,  3.204911E-001
  2.926606E+001, -1.405219E+002,  0.000000E+000, -4.429014E+001,  2.297180E+000, -1.496160E+000,  3.200043E-001
  2.434949E+001, -1.482916E+002,  0.000000E+000, -3.199465E+001,  1.973086E+000, -8.840414E-001,  3.200541E-001
  1.992127E+001, -1.551078E+002,  0.000000E+000, -1.872700E+001,  1.550753E+000, -4.004486E-001,  3.201720E-001
  1.769344E+001, -1.590555E+002,  0.000000E+000, -4.424242E+000,  9.731238E-001, -1.513273E-001,  3.200123E-001
  1.974407E+001, -1.578797E+002,  0.000000E+000,  1.017007E+001,  3.268735E-001, -2.050870E-001,  3.200494E-001
  2.479941E+001, -1.527654E+002,  0.000000E+000,  2.384846E+001, -3.732172E-001, -5.458853E-001,  3.204115E-001
  3.070061E+001, -1.461473E+002,  0.000000E+000,  3.662823E+001, -1.013504E+000, -9.488259E-001,  3.204976E-001
  3.643682E+001, -1.389523E+002,  0.000000E+000,  4.839266E+001, -1.614772E+000, -1.442635E+000,  3.203249E-001
  4.160705E+001, -1.316277E+002,  0.000000E+000,  5.907505E+001, -2.080652E+000, -1.993417E+000,  3.202445E-001
  4.589956E+001, -1.245614E+002,  0.000000E+000,  6.837335E+001, -2.400755E+000, -2.462850E+000,  3.200577E-001
  4.823632E+001, -1.186420E+002,  0.000000E+000,  7.549713E+001, -2.478268E+000, -2.765492E+000,  3.203523E-001
  4.842658E+001, -1.142654E+002,  0.000000E+000,  8.021069E+001, -2.374925E+000, -2.920661E+000,  3.201622E-001
  4.765604E+001, -1.100772E+002,  0.000000E+000,  8.427896E+001, -2.273081E+000, -2.968414E+000,  3.201574E-001
  4.609585E+001, -1.052315E+002,  0.000000E+000,  8.870918E+001, -2.289417E+000, -2.949058E+000,  3.204535E-001
  4.827127E+001, -9.471572E+001,  0.000000E+000, -9.138590E+001,  3.066645E+000, -2.647561E+000,  3.206192E-001
  5.066786E+001, -9.597511E+001,  0.000000E+000,  9.240931E+001, -2.746611E+000, -2.942496E+000,  3.200287E-001
  5.348552E+001, -8.487855E+001,  0.000000E+000, -9.468993E+001,  3.540802E+000, -2.388772E+000,  3.200359E-001
  5.528513E+001, -8.543694E+001,  0.000000E+000,  9.660282E+001, -3.353448E+000, -2.774731E+000,  3.206246E-001
  5.843408E+001, -7.367744E+001,  0.000000E+000, -9.854529E+001,  4.231175E+000, -1.960233E+000,  3.202162E-001
  5.979864E+001, -7.378302E+001,  0.000000E+000,  1.011650E+002, -4.123331E+000, -2.447734E+000,  3.204732E-001
  6.287673E+001, -6.130795E+001,  0.000000E+000, -1.028812E+002,  5.044485E+000, -1.334301E+000,  3.206622E-001
  6.406707E+001, -6.127487E+001,  0.000000E+000,  1.059874E+002, -5.017270E+000, -1.912646E+000,  3.204152E-001
  6.672915E+001, -4.813374E+001,  0.000000E+000, -1.074478E+002,  5.896870E+000, -4.908816E-001,  3.203559E-001
  6.770114E+001, -4.833359E+001,  0.000000E+000,  1.109388E+002, -5.942456E+000, -1.108431E+000,  3.201433E-001
  6.934336E+001, -3.505717E+001,  0.000000E+000, -1.120603E+002,  6.682589E+000,  6.413175E-001,  3.205444E-001
  7.020777E+001, -3.568175E+001,  0.000000E+000,  1.158048E+002, -6.781094E+000,  4.713819E-002,  3.204326E-001
  6.935403E+001, -2.362933E+001,  0.000000E+000, -1.165296E+002,  7.358174E+000,  2.091859E+000,  3.203745E-001
  7.034586E+001, -2.466277E+001,  0.000000E+000,  1.204541E+002, -7.375488E+000,  1.587359E+000,  3.202061E-001
  6.774976E+001, -1.264028E+001,  0.000000E+000, -1.208493E+002,  7.754811E+000,  3.835441E+000,  3.204795E-001
  6.910371E+001, -1.405134E+001,  0.000000E+000,  1.248887E+002, -7.729214E+000,  3.439662E+000,  3.200298E-001
  6.513887E+001, -1.405084E+000,  0.000000E+000, -1.249882E+002,  7.874755E+000,  5.814834E+000,  3.206630E-001
  6.720634E+001, -3.151747E+000,  0.000000E+000,  1.289227E+002, -7.792033E+000,  5.338153E+000,  3.205180E-001
  6.247131E+001,  1.082170E+001,  0.000000E+000, -1.281444E+002,  7.521291E+000,  7.637140E+000,  3.200331E-001
  6.564364E+001,  8.956730E+000,  0.000000E+000,  1.313436E+002, -7.377021E+000,  6.834938E+000,  3.200278E-001
  6.171109E+001,  2.654550E+001,  0.000000E+000, -1.284072E+002,  6.552100E+000,  8.489112E+000,  3.200552E-001
  6.589663E+001,  2.367573E+001,  0.000000E+000,  1.307005E+002, -6.484865E+000,  7.188370E+000,  3.201043E-001
  6.256643E+001,  4.222155E+001,  0.000000E+000, -1.259741E+002,  5.339381E+000,  8.030478E+000,  3.203762E-001
  6.742896E+001,  3.902149E+001,  0.000000E+000,  1.275155E+002, -5.378281E+000,  6.599073E+000,  3.204478E-001
  6.442330E+001,  5.722768E+001,  0.000000E+000, -1.217253E+002,  4.100367E+000,  6.912150E+000,  3.204040E-001
  6.975076E+001,  5.478984E+001,  0.000000E+000,  1.225681E+002, -4.258281E+000,  5.625637E+000,  3.201204E-001
  6.675367E+001,  7.187664E+001,  0.000000E+000, -1.163063E+002,  2.949232E+000,  5.602552E+000,  3.201595E-001
  7.235722E+001,  7.024558E+001,  0.000000E+000,  1.166377E+002, -3.229863E+000,  4.592068E+000,  3.201759E-001
  6.918717E+001,  8.570285E+001,  0.000000E+000, -1.103763E+002,  1.919255E+000,  4.435576E+000,  3.205365E-001
  7.491741E+001,  8.501262E+001,  0.000000E+000,  1.102894E+002, -2.304535E+000,  3.623781E+000,  3.204708E-001
  7.185112E+001,  9.897464E+001,  0.000000E+000, -1.039622E+002,  1.118585E+000,  3.486465E+000,  3.203127E-001
  7.759786E+001,  9.897383E+001,  0.000000E+000,  1.035441E+002, -1.452470E+000,  2.798812E+000,  3.202039E-001
  7.453184E+001,  1.112618E+002,  0.000000E+000, -9.737783E+001,  5.261618E-001,  2.694975E+000,  3.202366E-001
  8.021116E+001,  1.118757E+002,  0.000000E+000,  9.674314E+001, -7.859256E-001,  2.096828E+000,  3.203723E-001
  7.700861E+001,  1.222691E+002,  0.000000E+000, -9.104414E+001, -3.176848E-003,  1.953205E+000,  3.202017E-001
  8.260966E+001,  1.233963E+002,  0.000000E+000,  9.024542E+001, -2.456093E-001,  1.457734E+000,  3.205324E-001
  7.920214E+001,  1.321186E+002,  0.000000E+000, -8.504385E+001, -4.455322E-001,  1.266881E+000,  3.203445E-001
  8.634083E+001,  1.420711E+002,  0.000000E+000, -7.644483E+001, -7.477404E-001,  8.274549E-001,  3.203204E-001
  9.418972E+001,  1.528587E+002,  0.000000E+000, -6.695853E+001, -1.009123E+000,  3.717489E-001,  3.205392E-001
  1.028125E+002,  1.644790E+002,  0.000000E+000, -5.652485E+001, -1.231138E+000, -1.144210E-001,  3.204369E-001
  1.122352E+002,  1.769148E+002,  0.000000E+000, -4.512826E+001, -1.418766E+000, -6.187851E-001,  3.205202E-001
  1.224611E+002,  1.900611E+002,  0.000000E+000, -3.276071E+001, -1.579704E+000, -1.147763E+000,  3.202369E-001
  1.332604E+002,  2.035362E+002,  0.000000E+000, -1.964526E+001, -1.683818E+000, -1.749743E+000,  3.200531E-001
  1.426493E+002,  2.149351E+002,  0.000000E+000, -7.813319E+000, -1.626743E+000, -2.596945E+000,  3.201864E-001
  1.457794E+002,  2.188522E+002,  0.000000E+000, -2.758702E+000, -1.109608E+000, -3.268061E+000,  3.201997E-001
  1.467277E+002,  2.204852E+002,  0.000000E+000,  3.511321E-001, -4.508211E-001, -3.791787E+000,  3.202149E-001
  1.466198E+002,  2.207794E+002,  0.000000E+000,  3.045364E+000,  2.809029E-001, -3.961993E+000,  3.206045E-001
  1.455451E+002,  2.198027E+002,  0.000000E+000,  5.779918E+000,  9.862426E-001, -3.708961E+000,  3.204802E-001
  1.429052E+002,  2.169333E+002,  0.000000E+000,  9.861856E+000,  1.572391E+000, -3.109357E+000,  3.205086E-001
  1.351920E+002,  2.069267E+002,  0.000000E+000,  2.003586E+001,  1.695763E+000, -2.156698E+000,  3.204796E-001
  1.252876E+002,  1.933454E+002,  0.000000E+000,  3.267986E+001,  1.546839E+000, -1.480319E+000,  3.201553E-001
  1.157009E+002,  1.798131E+002,  0.000000E+000,  4.483573E+001,  1.346489E+000, -9.612818E-001,  3.202998E-001
  1.068516E+002,  1.670256E+002,  0.000000E+000,  5.603327E+001,  1.098144E+000, -4.898261E-001,  3.200453E-001
  9.879215E+001,  1.551272E+002,  0.000000E+000,  6.625312E+001,  8.055071E-001, -1.772400E-002,  3.205316E-001
  9.145813E+001,  1.440285E+002,  0.000000E+000,  7.555849E+001,  5.086140E-001,  4.110181E-001,  3.200855E-001
  8.474125E+001,  1.337536E+002,  0.000000E+000,  8.406660E+001,  2.154878E-001,  8.126303E-001,  3.202780E-001
  5.346775E+001, -9.648067E+001,  0.000000E+000, -8.719677E+001,  3.366018E+000, -2.944523E+000,  3.206181E-001
  5.446653E+001, -9.953656E+001,  0.000000E+000, -8.397491E+001,  3.502589E+000, -3.153460E+000,  3.202588E-001
  5.494367E+001, -1.029332E+002,  0.000000E+000, -8.009849E+001,  3.602645E+000, -3.271505E+000,  3.201724E-001
  5.405603E+001, -1.077168E+002,  0.000000E+000, -7.426891E+001,  3.559604E+000, -3.232699E+000,  3.202152E-001
  5.147542E+001, -1.140924E+002,  0.000000E+000, -6.590294E+001,  3.403943E+000, -2.995288E+000,  3.203569E-001
  4.800456E+001, -1.210409E+002,  0.000000E+000, -5.597180E+001,  3.138740E+000, -2.621771E+000,  3.200836E-001
  4.428956E+001, -1.278993E+002,  0.000000E+000, -4.488671E+001,  2.789976E+000, -2.145612E+000,  3.203708E-001
  4.109616E+001, -1.338424E+002,  0.000000E+000, -3.258425E+001,  2.289313E+000, -1.695602E+000,  3.200868E-001
  3.959946E+001, -1.376002E+002,  0.000000E+000, -1.880216E+001,  1.686436E+000, -1.402518E+000,  3.201938E-001
  3.970743E+001, -1.391120E+002,  0.000000E+000, -4.074082E+000,  9.956101E-001, -1.280351E+000,  3.204888E-001
  4.036782E+001, -1.393650E+002,  0.000000E+000,  1.075633E+001,  2.151758E-001, -1.225275E+000,  3.200228E-001
  4.219468E+001, -1.376173E+002,  0.000000E+000,  2.509184E+001, -5.776759E-001, -1.323245E+000,  3.205102E-001
  4.627344E+001, -1.328839E+002,  0.000000E+000,  3.788376E+001, -1.287852E+000, -1.612133E+000,  3.200424E-001
  5.093572E+001, -1.268763E+002,  0.000000E+000,  4.934531E+001, -1.942692E+000, -2.021625E+000,  3.200369E-001
  5.527417E+001, -1.205011E+002,  0.000000E+000,  5.964826E+001, -2.485642E+000, -2.498343E+000,  3.202626E-001
  5.863961E+001, -1.144722E+002,  0.000000E+000,  6.845503E+001, -2.870777E+000, -2.888213E+000,  3.204075E-001
  5.996125E+001, -1.097907E+002,  0.000000E+000,  7.472780E+001, -2.999596E+000, -3.061047E+000,  3.201352E-001
  5.956569E+001, -1.063628E+002,  0.000000E+000,  7.899903E+001, -2.961317E+000, -3.122407E+000,  3.202035E-001
  5.852583E+001, -1.030926E+002,  0.000000E+000,  8.270468E+001, -2.854935E+000, -3.125235E+000,  3.203819E-001
  5.688705E+001, -9.930759E+001,  0.000000E+000,  8.658628E+001, -2.819307E+000, -3.072368E+000,  3.202597E-001
  5.929601E+001, -8.834755E+001,  0.000000E+000, -8.946251E+001,  3.669599E+000, -2.807642E+000,  3.204958E-001
  6.205422E+001, -9.037387E+001,  0.000000E+000,  8.965906E+001, -3.274330E+000, -2.982672E+000,  3.206013E-001
  6.501192E+001, -7.917376E+001,  0.000000E+000, -9.211045E+001,  4.108593E+000, -2.516994E+000,  3.201748E-001
  6.703334E+001, -8.034788E+001,  0.000000E+000,  9.323765E+001, -3.896253E+000, -2.730986E+000,  3.205201E-001
  7.028688E+001, -6.890862E+001,  0.000000E+000, -9.526108E+001,  4.702190E+000, -2.042346E+000,  3.200163E-001
  7.176974E+001, -6.938400E+001,  0.000000E+000,  9.719253E+001, -4.645016E+000, -2.287994E+000,  3.203598E-001
  7.493541E+001, -5.762704E+001,  0.000000E+000, -9.887523E+001,  5.401568E+000, -1.295908E+000,  3.204088E-001
  7.591905E+001, -5.779290E+001,  0.000000E+000,  1.014607E+002, -5.500389E+000, -1.611134E+000,  3.205074E-001
  7.852135E+001, -4.576336E+001,  0.000000E+000, -1.028436E+002,  6.118217E+000, -2.477849E-001,  3.204881E-001
  7.912468E+001, -4.614762E+001,  0.000000E+000,  1.058409E+002, -6.264550E+000, -6.818264E-001,  3.200562E-001
  7.973341E+001, -3.512523E+001,  0.000000E+000, -1.068436E+002,  6.777166E+000,  1.108542E+000,  3.200582E-001
  8.030138E+001, -3.563575E+001,  0.000000E+000,  1.102096E+002, -6.902358E+000,  6.239224E-001,  3.201024E-001
  7.899275E+001, -2.532532E+001,  0.000000E+000, -1.108681E+002,  7.256743E+000,  2.805814E+000,  3.204412E-001
  7.969249E+001, -2.614870E+001,  0.000000E+000,  1.144700E+002, -7.316393E+000,  2.297105E+000,  3.201547E-001
  7.710451E+001, -1.544238E+001,  0.000000E+000, -1.148672E+002,  7.523678E+000,  4.793657E+000,  3.200425E-001
  7.820911E+001, -1.638287E+001,  0.000000E+000,  1.186876E+002, -7.547622E+000,  4.303839E+000,  3.205720E-001
  7.456928E+001, -4.975476E+000,  0.000000E+000, -1.186775E+002,  7.550897E+000,  6.897293E+000,  3.200471E-001
  7.616455E+001, -5.981337E+000,  0.000000E+000,  1.224930E+002, -7.504645E+000,  6.395138E+000,  3.201598E-001
  7.273503E+001,  8.374800E+000,  0.000000E+000, -1.210416E+002,  7.097538E+000,  8.620588E+000,  3.202686E-001
  7.505692E+001,  7.525040E+000,  0.000000E+000,  1.244231E+002, -6.968677E+000,  7.899146E+000,  3.204313E-001
  7.231833E+001,  2.521832E+001,  0.000000E+000, -1.209881E+002,  6.184073E+000,  9.387848E+000,  3.204049E-001
  7.541627E+001,  2.356104E+001,  0.000000E+000,  1.237686E+002, -6.145102E+000,  8.317105E+000,  3.200181E-001
  7.291985E+001,  4.222666E+001,  0.000000E+000, -1.188214E+002,  5.043138E+000,  9.109501E+000,  3.200421E-001
  7.672563E+001,  3.969751E+001,  0.000000E+000,  1.208182E+002, -5.086536E+000,  7.629880E+000,  3.200371E-001
  7.431292E+001,  5.771418E+001,  0.000000E+000, -1.150201E+002,  3.895806E+000,  7.987559E+000,  3.205380E-001
  7.860331E+001,  5.553540E+001,  0.000000E+000,  1.163131E+002, -4.065716E+000,  6.527314E+000,  3.204921E-001
  7.623065E+001,  7.240316E+001,  0.000000E+000, -1.100656E+002,  2.817007E+000,  6.602249E+000,  3.202262E-001
  8.077307E+001,  7.084131E+001,  0.000000E+000,  1.108788E+002, -3.151731E+000,  5.319143E+000,  3.205401E-001
  7.842800E+001,  8.632010E+001,  0.000000E+000, -1.044392E+002,  1.921203E+000,  5.271843E+000,  3.204615E-001
  8.318402E+001,  8.551961E+001,  0.000000E+000,  1.047992E+002, -2.314351E+000,  4.230179E+000,  3.202409E-001
  8.084977E+001,  9.949845E+001,  0.000000E+000, -9.835557E+001,  1.167464E+000,  4.163682E+000,  3.202408E-001
  8.569035E+001,  9.939794E+001,  0.000000E+000,  9.839012E+001, -1.579434E+000,  3.335900E+000,  3.204780E-001
  8.314222E+001,  1.116525E+002,  0.000000E+000, -9.234148E+001,  6.132098E-001,  3.234844E+000,  3.203537E-001
  8.805582E+001,  1.120627E+002,  0.000000E+000,  9.210783E+001, -9.273624E-001,  2.553611E+000,  3.203997E-001
  8.525480E+001,  1.225720E+002,  0.000000E+000, -8.653333E+001,  1.275931E-001,  2.418196E+000,  3.205405E-001
  9.016763E+001,  1.234934E+002,  0.000000E+000,  8.607421E+001, -4.094863E-001,  1.875653E+000,  3.203126E-001
  8.716573E+001,  1.323338E+002,  0.000000E+000, -8.099597E+001, -3.002238E-001,  1.679627E+000,  3.203712E-001
  9.456689E+001,  1.420189E+002,  0.000000E+000, -7.242452E+001, -5.822630E-001,  1.290516E+000,  3.201940E-001
  1.026454E+002,  1.524779E+002,  0.000000E+000, -6.301087E+001, -8.160560E-001,  9.099976E-001,  3.202072E-001
  1.114331E+002,  1.637342E+002,  0.000000E+000, -5.273346E+001, -1.037537E+000,  5.171428E-001,  3.203448E-001
  1.209836E+002,  1.757634E+002,  0.000000E+000, -4.155616E+001, -1.246541E+000,  1.052121E-001,  3.200005E-001
  1.313051E+002,  1.885421E+002,  0.000000E+000, -2.947506E+001, -1.436778E+000, -3.267223E-001,  3.203338E-001
  1.420497E+002,  2.015162E+002,  0.000000E+000, -1.682923E+001, -1.579235E+000, -8.185620E-001,  3.203986E-001
  1.502696E+002,  2.113102E+002,  0.000000E+000, -6.629442E+000, -1.511167E+000, -1.619541E+000,  3.202242E-001
  1.523835E+002,  2.143993E+002,  0.000000E+000, -2.592778E+000, -1.008498E+000, -2.166871E+000,  3.201266E-001
  1.530225E+002,  2.158249E+002,  0.000000E+000,  2.692085E-001, -4.371676E-001, -2.562502E+000,  3.203717E-001
  1.529586E+002,  2.161564E+002,  0.000000E+000,  2.830550E+000,  1.717800E-001, -2.688575E+000,  3.205481E-001
  1.521687E+002,  2.153010E+002,  0.000000E+000,  5.407132E+000,  7.485227E-001, -2.506235E+000,  3.203307E-001
  1.501261E+002,  2.128850E+002,  0.000000E+000,  8.912851E+000,  1.257211E+000, -2.082740E+000,  3.200652E-001
  1.433091E+002,  2.044236E+002,  0.000000E+000,  1.769168E+001,  1.423589E+000, -1.302612E+000,  3.204629E-001
  1.333840E+002,  1.915231E+002,  0.000000E+000,  2.983598E+001,  1.270914E+000, -7.378730E-001,  3.202237E-001
  1.236749E+002,  1.784516E+002,  0.000000E+000,  4.169734E+001,  1.067944E+000, -3.068144E-001,  3.201768E-001
  1.147000E+002,  1.660649E+002,  0.000000E+000,  5.268060E+001,  8.396002E-001,  9.347536E-002,  3.203483E-001
  1.064783E+002,  1.544916E+002,  0.000000E+000,  6.275407E+001,  5.962614E-001,  4.867884E-001,  3.200022E-001
  9.895278E+001,  1.437294E+002,  0.000000E+000,  7.196934E+001,  3.165395E-001,  8.770481E-001,  3.203984E-001
  9.206888E+001,  1.337342E+002,  0.000000E+000,  8.037908E+001,  2.085474E-002,  1.233893E+000,  3.202739E-001
  6.321641E+001, -8.990661E+001,  0.000000E+000, -8.579491E+001,  3.922426E+000, -3.105523E+000,  3.200483E-001
  6.449759E+001, -9.233334E+001,  0.000000E+000, -8.273362E+001,  4.058510E+000, -3.354245E+000,  3.205990E-001
  6.549081E+001, -9.496506E+001,  0.000000E+000, -7.903768E+001,  4.139422E+000, -3.534435E+000,  3.205565E-001
  6.550882E+001, -9.866902E+001,  0.000000E+000, -7.357618E+001,  4.095218E+000, -3.576332E+000,  3.200538E-001
  6.388350E+001, -1.039251E+002,  0.000000E+000, -6.562878E+001,  3.908273E+000, -3.414112E+000,  3.204316E-001
  6.150878E+001, -1.096570E+002,  0.000000E+000, -5.583090E+001,  3.578354E+000, -3.135868E+000,  3.201948E-001
  5.972459E+001, -1.144538E+002,  0.000000E+000, -4.450482E+001,  3.077964E+000, -2.833597E+000,  3.203615E-001
  5.942144E+001, -1.173055E+002,  0.000000E+000, -3.168803E+001,  2.411777E+000, -2.608373E+000,  3.203071E-001
  5.975627E+001, -1.190235E+002,  0.000000E+000, -1.784397E+001,  1.725633E+000, -2.440014E+000,  3.200291E-001
  6.022354E+001, -1.200452E+002,  0.000000E+000, -3.657266E+000,  9.695092E-001, -2.331194E+000,  3.200206E-001
  6.066522E+001, -1.204789E+002,  0.000000E+000,  1.052952E+001,  1.123527E-001, -2.242998E+000,  3.200079E-001
  6.109987E+001, -1.202557E+002,  0.000000E+000,  2.470321E+001, -7.770855E-001, -2.212559E+000,  3.201780E-001
  6.209334E+001, -1.188212E+002,  0.000000E+000,  3.811155E+001, -1.626034E+000, -2.276943E+000,  3.203402E-001
  6.469161E+001, -1.149932E+002,  0.000000E+000,  4.976418E+001, -2.322574E+000, -2.540805E+000,  3.203858E-001
  6.790084E+001, -1.098685E+002,  0.000000E+000,  5.986679E+001, -2.861009E+000, -2.923758E+000,  3.204191E-001
  7.033337E+001, -1.048934E+002,  0.000000E+000,  6.815105E+001, -3.262158E+000, -3.236889E+000,  3.204204E-001
  7.070061E+001, -1.013971E+002,  0.000000E+000,  7.378488E+001, -3.437876E+000, -3.303783E+000,  3.204046E-001
  6.983202E+001, -9.874267E+001,  0.000000E+000,  7.778042E+001, -3.451243E+000, -3.291867E+000,  3.204881E-001
  6.854225E+001, -9.617985E+001,  0.000000E+000,  8.125482E+001, -3.406751E+000, -3.233604E+000,  3.202896E-001
  6.685508E+001, -9.322796E+001,  0.000000E+000,  8.475909E+001, -3.353710E+000, -3.124069E+000,  3.203794E-001
  6.923491E+001, -8.204813E+001,  0.000000E+000, -8.773366E+001,  4.237835E+000, -2.902047E+000,  3.202463E-001
  7.235325E+001, -8.480334E+001,  0.000000E+000,  8.721803E+001, -3.833955E+000, -2.952859E+000,  3.205994E-001
  7.515889E+001, -7.352866E+001,  0.000000E+000, -8.983983E+001,  4.641875E+000, -2.564118E+000,  3.202278E-001
  7.759630E+001, -7.545426E+001,  0.000000E+000,  9.013057E+001, -4.424638E+000, -2.614728E+000,  3.204469E-001
  8.065670E+001, -6.425668E+001,  0.000000E+000, -9.227313E+001,  5.145818E+000, -2.026056E+000,  3.204910E-001
  8.233654E+001, -6.538867E+001,  0.000000E+000,  9.345324E+001, -5.159838E+000, -2.052944E+000,  3.203274E-001
  8.530970E+001, -5.424871E+001,  0.000000E+000, -9.513051E+001,  5.725213E+000, -1.173626E+000,  3.202716E-001
  8.630517E+001, -5.490137E+001,  0.000000E+000,  9.708368E+001, -5.885880E+000, -1.204656E+000,  3.200765E-001
  8.794009E+001, -4.455852E+001,  0.000000E+000, -9.837025E+001,  6.302448E+000,  5.714570E-002,  3.206751E-001
  8.857715E+001, -4.504997E+001,  0.000000E+000,  1.008906E+002, -6.518867E+000, -1.076446E-001,  3.205891E-001
  8.832014E+001, -3.573656E+001,  0.000000E+000, -1.018018E+002,  6.794204E+000,  1.647056E+000,  3.200393E-001
  8.877400E+001, -3.629315E+001,  0.000000E+000,  1.047689E+002, -6.969684E+000,  1.330046E+000,  3.204161E-001
  8.732705E+001, -2.712067E+001,  0.000000E+000, -1.053428E+002,  7.089052E+000,  3.570476E+000,  3.200827E-001
  8.786147E+001, -2.773794E+001,  0.000000E+000,  1.086852E+002, -7.243230E+000,  3.139841E+000,  3.205421E-001
  8.538889E+001, -1.818492E+001,  0.000000E+000, -1.089965E+002,  7.237510E+000,  5.702371E+000,  3.205556E-001
  8.629047E+001, -1.882739E+001,  0.000000E+000,  1.125691E+002, -7.339183E+000,  5.221906E+000,  3.204052E-001
  8.339651E+001, -7.618105E+000,  0.000000E+000, -1.121832E+002,  7.133497E+000,  7.798956E+000,  3.204078E-001
  8.469576E+001, -8.110644E+000,  0.000000E+000,  1.157814E+002, -7.099317E+000,  7.253057E+000,  3.200418E-001
  8.253010E+001,  6.735360E+000,  0.000000E+000, -1.136229E+002,  6.617455E+000,  9.254501E+000,  3.203994E-001
  8.419411E+001,  6.392855E+000,  0.000000E+000,  1.170980E+002, -6.513823E+000,  8.604491E+000,  3.205160E-001
  8.244578E+001,  2.385022E+001,  0.000000E+000, -1.133107E+002,  5.804137E+000,  9.938503E+000,  3.200991E-001
  8.458884E+001,  2.313614E+001,  0.000000E+000,  1.164845E+002, -5.774619E+000,  9.071039E+000,  3.201658E-001
  8.287327E+001,  4.166749E+001,  0.000000E+000, -1.114652E+002,  4.795025E+000,  9.950051E+000,  3.201903E-001
  8.565025E+001,  4.001379E+001,  0.000000E+000,  1.139403E+002, -4.850096E+000,  8.595145E+000,  3.204456E-001
  8.390825E+001,  5.784368E+001,  0.000000E+000, -1.080821E+002,  3.716708E+000,  9.005796E+000,  3.203566E-001
  8.720670E+001,  5.602136E+001,  0.000000E+000,  1.098155E+002, -3.893315E+000,  7.432655E+000,  3.202946E-001
  8.556881E+001,  7.280571E+001,  0.000000E+000, -1.034697E+002,  2.736123E+000,  7.707159E+000,  3.202531E-001
  8.912926E+001,  7.134609E+001,  0.000000E+000,  1.047221E+002, -3.038011E+000,  6.181531E+000,  3.200528E-001
  8.752874E+001,  8.677957E+001,  0.000000E+000, -9.818717E+001,  1.929397E+000,  6.276264E+000,  3.201928E-001
  9.129695E+001,  8.597556E+001,  0.000000E+000,  9.900294E+001, -2.316353E+000,  4.973123E+000,  3.202057E-001
  8.952145E+001,  9.979181E+001,  0.000000E+000, -9.268373E+001,  1.227202E+000,  4.976672E+000,  3.202861E-001
  9.345830E+001,  9.957227E+001,  0.000000E+000,  9.314556E+001, -1.619600E+000,  3.901028E+000,  3.202502E-001
  9.140066E+001,  1.116986E+002,  0.000000E+000, -8.724437E+001,  6.404264E-001,  3.887217E+000,  3.201411E-001
  9.544680E+001,  1.119901E+002,  0.000000E+000,  8.743827E+001, -1.019430E+000,  3.026800E+000,  3.205107E-001
  9.309956E+001,  1.225578E+002,  0.000000E+000, -8.198778E+001,  2.166927E-001,  2.966915E+000,  3.204740E-001
  9.729259E+001,  1.233004E+002,  0.000000E+000,  8.191489E+001, -5.256606E-001,  2.287221E+000,  3.200211E-001
  9.467573E+001,  1.323011E+002,  0.000000E+000, -7.694005E+001, -1.678465E-001,  2.179469E+000,  3.204841E-001
  1.022445E+002,  1.416739E+002,  0.000000E+000, -6.843086E+001, -4.332531E-001,  1.855765E+000,  3.200980E-001
  1.104423E+002,  1.517832E+002,  0.000000E+000, -5.914585E+001, -6.922489E-001,  1.538752E+000,  3.203689E-001
  1.193279E+002,  1.626087E+002,  0.000000E+000, -4.903671E+001, -9.309537E-001,  1.217559E+000,  3.202240E-001
  1.289290E+002,  1.741675E+002,  0.000000E+000, -3.808176E+001, -1.158013E+000,  8.786413E-001,  3.202242E-001
  1.392514E+002,  1.863600E+002,  0.000000E+000, -2.630593E+001, -1.367637E+000,  5.343546E-001,  3.204731E-001
  1.495839E+002,  1.983650E+002,  0.000000E+000, -1.435239E+001, -1.530521E+000,  8.444255E-002,  3.200145E-001
  1.561348E+002,  2.061854E+002,  0.000000E+000, -5.972390E+000, -1.448111E+000, -7.155934E-001,  3.204162E-001
  1.575651E+002,  2.086348E+002,  0.000000E+000, -2.603061E+000, -9.744642E-001, -1.161422E+000,  3.205545E-001
  1.580432E+002,  2.099362E+002,  0.000000E+000,  1.352815E-001, -4.680342E-001, -1.467371E+000,  3.200472E-001
  1.579600E+002,  2.103180E+002,  0.000000E+000,  2.651812E+000,  7.385964E-002, -1.592135E+000,  3.200615E-001
  1.573132E+002,  2.096820E+002,  0.000000E+000,  5.139325E+000,  5.744285E-001, -1.469921E+000,  3.202706E-001
  1.557940E+002,  2.078377E+002,  0.000000E+000,  8.190294E+000,  1.001234E+000, -1.084193E+000,  3.205407E-001
  1.501533E+002,  2.009970E+002,  0.000000E+000,  1.556692E+001,  1.172155E+000, -4.090357E-001,  3.200367E-001
  1.405996E+002,  1.890274E+002,  0.000000E+000,  2.706803E+001,  1.035550E+000,  6.727484E-002,  3.203944E-001
  1.309054E+002,  1.765532E+002,  0.000000E+000,  3.861908E+001,  8.798842E-001,  3.812536E-001,  3.204040E-001
  1.218641E+002,  1.646418E+002,  0.000000E+000,  4.938369E+001,  6.768597E-001,  6.883316E-001,  3.202301E-001
  1.135570E+002,  1.534978E+002,  0.000000E+000,  5.927878E+001,  4.356269E-001,  1.021796E+000,  3.201918E-001
  1.059020E+002,  1.431058E+002,  0.000000E+000,  6.837306E+001,  1.708611E-001,  1.336711E+000,  3.202446E-001
  9.888012E+001,  1.334476E+002,  0.000000E+000,  7.669828E+001, -1.165321E-001,  1.642893E+000,  3.203252E-001
  7.212114E+001, -8.364116E+001,  0.000000E+000, -8.444741E+001,  4.422188E+000, -3.242132E+000,  3.201213E-001
  7.371930E+001, -8.551003E+001,  0.000000E+000, -8.139699E+001,  4.538677E+000, -3.517318E+000,  3.204645E-001
  7.520479E+001, -8.744404E+001,  0.000000E+000, -7.774515E+001,  4.622596E+000, -3.742104E+000,  3.201087E-001
  7.609702E+001, -9.010999E+001,  0.000000E+000, -7.252406E+001,  4.563155E+000, -3.866918E+000,  3.200507E-001
  7.589313E+001, -9.378805E+001,  0.000000E+000, -6.473076E+001,  4.262119E+000, -3.822541E+000,  3.202154E-001
  7.577395E+001, -9.716053E+001,  0.000000E+000, -5.454338E+001,  3.773369E+000, -3.726566E+000,  3.204253E-001
  7.651199E+001, -9.922905E+001,  0.000000E+000, -4.269114E+001,  3.177482E+000, -3.641708E+000,  3.200940E-001
  7.736625E+001, -1.006828E+002,  0.000000E+000, -3.008727E+001,  2.485171E+000, -3.505028E+000,  3.202168E-001
  7.806382E+001, -1.018772E+002,  0.000000E+000, -1.683370E+001,  1.758706E+000, -3.371380E+000,  3.204091E-001
  7.859331E+001, -1.027224E+002,  0.000000E+000, -3.289433E+000,  9.432209E-001, -3.253239E+000,  3.203431E-001
  7.899980E+001, -1.031541E+002,  0.000000E+000,  1.021800E+001,  1.297008E-002, -3.154848E+000,  3.203523E-001
  7.912917E+001, -1.032385E+002,  0.000000E+000,  2.370322E+001, -9.250843E-001, -3.086063E+000,  3.201537E-001
  7.906330E+001, -1.029974E+002,  0.000000E+000,  3.682457E+001, -1.833319E+000, -3.047681E+000,  3.202897E-001
  7.908954E+001, -1.019908E+002,  0.000000E+000,  4.897852E+001, -2.624974E+000, -3.112931E+000,  3.200806E-001
  8.002718E+001, -9.929984E+001,  0.000000E+000,  5.944336E+001, -3.264959E+000, -3.318530E+000,  3.201367E-001
  8.093468E+001, -9.593122E+001,  0.000000E+000,  6.744697E+001, -3.644638E+000, -3.516782E+000,  3.200131E-001
  8.039859E+001, -9.354348E+001,  0.000000E+000,  7.267015E+001, -3.841053E+000, -3.504520E+000,  3.204109E-001
  7.911528E+001, -9.159256E+001,  0.000000E+000,  7.650468E+001, -3.925321E+000, -3.411680E+000,  3.201836E-001
  7.758316E+001, -8.959405E+001,  0.000000E+000,  7.985968E+001, -3.928165E+000, -3.281495E+000,  3.203598E-001
  7.583309E+001, -8.734077E+001,  0.000000E+000,  8.309392E+001, -3.902782E+000, -3.132958E+000,  3.206492E-001
  7.811774E+001, -7.605964E+001,  0.000000E+000, -8.611544E+001,  4.750687E+000, -2.984027E+000,  3.201596E-001
  8.144136E+001, -7.938353E+001,  0.000000E+000,  8.510698E+001, -4.373046E+000, -2.870340E+000,  3.206124E-001
  8.394037E+001, -6.815051E+001,  0.000000E+000, -8.782201E+001,  5.136582E+000, -2.558392E+000,  3.206503E-001
  8.677124E+001, -7.084846E+001,  0.000000E+000,  8.737878E+001, -4.964836E+000, -2.452292E+000,  3.202880E-001
  8.929122E+001, -5.982082E+001,  0.000000E+000, -8.969345E+001,  5.560071E+000, -1.938143E+000,  3.202181E-001
  9.148346E+001, -6.177511E+001,  0.000000E+000,  9.002240E+001, -5.594737E+000, -1.756299E+000,  3.202596E-001
  9.331447E+001, -5.156446E+001,  0.000000E+000, -9.181772E+001,  6.018558E+000, -9.781876E-001,  3.206699E-001
  9.482919E+001, -5.280064E+001,  0.000000E+000,  9.302202E+001, -6.209181E+000, -7.590411E-001,  3.206515E-001
  9.522301E+001, -4.389095E+001,  0.000000E+000, -9.425408E+001,  6.445434E+000,  4.225394E-001,  3.201055E-001
  9.608055E+001, -4.480160E+001,  0.000000E+000,  9.623128E+001, -6.680463E+000,  5.184905E-001,  3.202645E-001
  9.551300E+001, -3.632282E+001,  0.000000E+000, -9.704205E+001,  6.762090E+000,  2.245513E+000,  3.203142E-001
  9.598796E+001, -3.713974E+001,  0.000000E+000,  9.960696E+001, -6.980383E+000,  2.151673E+000,  3.202792E-001
  9.452914E+001, -2.877063E+001,  0.000000E+000, -1.000625E+002,  6.908740E+000,  4.322156E+000,  3.205035E-001
  9.505037E+001, -2.935561E+001,  0.000000E+000,  1.031168E+002, -7.130810E+000,  4.063700E+000,  3.204675E-001
  9.300398E+001, -2.032515E+001,  0.000000E+000, -1.031550E+002,  6.919842E+000,  6.466698E+000,  3.202191E-001
  9.363169E+001, -2.085093E+001,  0.000000E+000,  1.065865E+002, -7.069506E+000,  6.103142E+000,  3.202714E-001
  9.199210E+001, -8.940149E+000,  0.000000E+000, -1.053299E+002,  6.644014E+000,  8.355639E+000,  3.203098E-001
  9.286830E+001, -9.222322E+000,  0.000000E+000,  1.088733E+002, -6.673774E+000,  7.894506E+000,  3.200512E-001
  9.176686E+001,  5.816756E+000,  0.000000E+000, -1.060992E+002,  6.149385E+000,  9.605707E+000,  3.203611E-001
  9.283773E+001,  5.561886E+000,  0.000000E+000,  1.097054E+002, -6.086350E+000,  9.058739E+000,  3.205087E-001
  9.192379E+001,  2.271446E+001,  0.000000E+000, -1.056284E+002,  5.465795E+000,  1.026507E+001,  3.204525E-001
  9.332605E+001,  2.255709E+001,  0.000000E+000,  1.090674E+002, -5.446738E+000,  9.568116E+000,  3.203445E-001
  9.236103E+001,  4.063352E+001,  0.000000E+000, -1.039392E+002,  4.565079E+000,  1.046093E+001,  3.201120E-001
  9.419266E+001,  3.990362E+001,  0.000000E+000,  1.068987E+002, -4.627300E+000,  9.307037E+000,  3.202273E-001
  9.312157E+001,  5.758082E+001,  0.000000E+000, -1.010132E+002,  3.567065E+000,  9.878559E+000,  3.202382E-001
  9.548436E+001,  5.628055E+001,  0.000000E+000,  1.032174E+002, -3.769974E+000,  8.346584E+000,  3.203364E-001
  9.451632E+001,  7.305432E+001,  0.000000E+000, -9.676680E+001,  2.675615E+000,  8.719496E+000,  3.200459E-001
  9.719220E+001,  7.169226E+001,  0.000000E+000,  9.845664E+001, -2.976179E+000,  7.102203E+000,  3.204043E-001
  9.611579E+001,  8.692807E+001,  0.000000E+000, -9.202402E+001,  1.882450E+000,  7.313062E+000,  3.202522E-001
  9.901148E+001,  8.614029E+001,  0.000000E+000,  9.326932E+001, -2.293952E+000,  5.806129E+000,  3.203077E-001
  9.770205E+001,  9.974299E+001,  0.000000E+000, -8.711840E+001,  1.219595E+000,  5.899691E+000,  3.205128E-001
  1.007798E+002,  9.946433E+001,  0.000000E+000,  8.799169E+001, -1.634418E+000,  4.597905E+000,  3.200630E-001
  9.922246E+001,  1.114587E+002,  0.000000E+000, -8.221555E+001,  6.850163E-001,  4.658938E+000,  3.201285E-001
  1.024368E+002,  1.116786E+002,  0.000000E+000,  8.281956E+001, -1.076339E+000,  3.573524E+000,  3.200590E-001
  1.005562E+002,  1.221726E+002,  0.000000E+000, -7.747145E+001,  2.588147E-001,  3.621738E+000,  3.202477E-001
  1.039449E+002,  1.228206E+002,  0.000000E+000,  7.783136E+001, -6.148807E-001,  2.758184E+000,  3.205152E-001
  1.017696E+002,  1.319100E+002,  0.000000E+000, -7.290433E+001, -7.913380E-002,  2.750501E+000,  3.205318E-001
  1.094229E+002,  1.409275E+002,  0.000000E+000, -6.447270E+001, -3.552921E-001,  2.490214E+000,  3.200230E-001
  1.176770E+002,  1.506054E+002,  0.000000E+000, -5.532381E+001, -6.116652E-001,  2.232623E+000,  3.201238E-001
  1.265898E+002,  1.609661E+002,  0.000000E+000, -4.540916E+001, -8.742367E-001,  1.973516E+000,  3.203369E-001
  1.361860E+002,  1.719458E+002,  0.000000E+000, -3.469965E+001, -1.119943E+000,  1.717614E+000,  3.202847E-001
  1.463635E+002,  1.833818E+002,  0.000000E+000, -2.328954E+001, -1.342014E+000,  1.457643E+000,  3.202685E-001
  1.559817E+002,  1.941754E+002,  0.000000E+000, -1.218216E+001, -1.529963E+000,  9.733586E-001,  3.200832E-001
  1.608130E+002,  1.998821E+002,  0.000000E+000, -5.574285E+000, -1.405130E+000,  2.234347E-001,  3.204883E-001
  1.618579E+002,  2.016971E+002,  0.000000E+000, -2.602540E+000, -9.798088E-001, -1.607484E-001,  3.201344E-001
  1.622477E+002,  2.027934E+002,  0.000000E+000, -3.157583E-003, -5.355782E-001, -4.377991E-001,  3.203706E-001
  1.621396E+002,  2.032267E+002,  0.000000E+000,  2.411468E+000, -5.888141E-002, -5.533639E-001,  3.202591E-001
  1.615796E+002,  2.028499E+002,  0.000000E+000,  4.851131E+000,  4.084011E-001, -5.097571E-001,  3.201208E-001
  1.604010E+002,  2.015756E+002,  0.000000E+000,  7.627474E+000,  7.912048E-001, -1.866155E-001,  3.202596E-001
  1.560684E+002,  1.965927E+002,  0.000000E+000,  1.364879E+001,  9.791235E-001,  4.404838E-001,  3.204166E-001
  1.470398E+002,  1.857610E+002,  0.000000E+000,  2.444122E+001,  8.520902E-001,  8.911051E-001,  3.200753E-001
  1.375221E+002,  1.740765E+002,  0.000000E+000,  3.560819E+001,  6.974070E-001,  1.124028E+000,  3.202876E-001
  1.284923E+002,  1.627606E+002,  0.000000E+000,  4.613527E+001,  5.016932E-001,  1.338800E+000,  3.200968E-001
  1.201437E+002,  1.521397E+002,  0.000000E+000,  5.585604E+001,  2.824239E-001,  1.577024E+000,  3.201239E-001
  1.124269E+002,  1.421943E+002,  0.000000E+000,  6.482028E+001,  4.302047E-002,  1.823526E+000,  3.202914E-001
  1.052971E+002,  1.329009E+002,  0.000000E+000,  7.307242E+001, -2.193938E-001,  2.062018E+000,  3.204859E-001
  8.024820E+001, -7.773943E+001,  0.000000E+000, -8.304854E+001,  4.886089E+000, -3.354430E+000,  3.200536E-001
  8.219270E+001, -7.909265E+001,  0.000000E+000, -7.995484E+001,  4.983719E+000, -3.652612E+000,  3.201713E-001
  8.424995E+001, -8.029380E+001,  0.000000E+000, -7.616250E+001,  5.003116E+000, -3.918391E+000,  3.200501E-001
  8.658826E+001, -8.136128E+001,  0.000000E+000, -7.069492E+001,  4.813525E+000, -4.180984E+000,  3.200809E-001
  8.889650E+001, -8.240300E+001,  0.000000E+000, -6.248610E+001,  4.389286E+000, -4.329113E+000,  3.203694E-001
  9.086236E+001, -8.346514E+001,  0.000000E+000, -5.201990E+001,  3.834676E+000, -4.385850E+000,  3.201273E-001
  9.234427E+001, -8.454450E+001,  0.000000E+000, -4.055976E+001,  3.213857E+000, -4.396853E+000,  3.202523E-001
  9.350953E+001, -8.552533E+001,  0.000000E+000, -2.847534E+001,  2.506177E+000, -4.301273E+000,  3.205225E-001
  9.441289E+001, -8.636293E+001,  0.000000E+000, -1.583821E+001,  1.741774E+000, -4.175902E+000,  3.204485E-001
  9.502806E+001, -8.703619E+001,  0.000000E+000, -2.963426E+000,  8.827815E-001, -4.058721E+000,  3.202064E-001
  9.532365E+001, -8.752229E+001,  0.000000E+000,  9.875253E+000, -1.008827E-001, -3.971923E+000,  3.203123E-001
  9.532183E+001, -8.774939E+001,  0.000000E+000,  2.266715E+001, -1.076969E+000, -3.878424E+000,  3.203883E-001
  9.490898E+001, -8.788591E+001,  0.000000E+000,  3.516310E+001, -1.996389E+000, -3.797894E+000,  3.204742E-001
  9.411333E+001, -8.783976E+001,  0.000000E+000,  4.699090E+001, -2.834215E+000, -3.757208E+000,  3.202600E-001
  9.290669E+001, -8.754307E+001,  0.000000E+000,  5.769881E+001, -3.555270E+000, -3.775562E+000,  3.200327E-001
  9.119501E+001, -8.698211E+001,  0.000000E+000,  6.602527E+001, -3.993225E+000, -3.770795E+000,  3.204969E-001
  8.926686E+001, -8.615171E+001,  0.000000E+000,  7.129323E+001, -4.217096E+000, -3.657967E+000,  3.200289E-001
  8.747375E+001, -8.495609E+001,  0.000000E+000,  7.516279E+001, -4.351905E+000, -3.478780E+000,  3.203460E-001
  8.569203E+001, -8.344881E+001,  0.000000E+000,  7.849206E+001, -4.402901E+000, -3.301976E+000,  3.200720E-001
  8.385544E+001, -8.174113E+001,  0.000000E+000,  8.155720E+001, -4.397813E+000, -3.107713E+000,  3.206594E-001
  8.597467E+001, -7.056040E+001,  0.000000E+000, -8.449059E+001,  5.194580E+000, -3.051870E+000,  3.200735E-001
  8.835445E+001, -7.173756E+001,  0.000000E+000, -8.137556E+001,  5.274223E+000, -3.455241E+000,  3.204192E-001
  9.106573E+001, -7.253489E+001,  0.000000E+000, -7.755945E+001,  5.291921E+000, -3.817203E+000,  3.204450E-001
  9.478950E+001, -7.239954E+001,  0.000000E+000, -7.214481E+001,  5.125337E+000, -4.240100E+000,  3.203452E-001
  9.981449E+001, -7.093177E+001,  0.000000E+000, -6.432205E+001,  4.737217E+000, -4.689421E+000,  3.203580E-001
  1.043854E+002, -6.965086E+001,  0.000000E+000, -5.434701E+001,  4.176821E+000, -4.972075E+000,  3.204863E-001
  1.072226E+002, -6.966188E+001,  0.000000E+000, -4.272877E+001,  3.467746E+000, -5.108117E+000,  3.200328E-001
  1.090481E+002, -7.022528E+001,  0.000000E+000, -3.016906E+001,  2.705526E+000, -5.087861E+000,  3.203442E-001
  1.102840E+002, -7.085653E+001,  0.000000E+000, -1.689673E+001,  1.814284E+000, -4.954623E+000,  3.200628E-001
  1.111182E+002, -7.142105E+001,  0.000000E+000, -3.364243E+000,  7.991518E-001, -4.841833E+000,  3.204778E-001
  1.113706E+002, -7.197379E+001,  0.000000E+000,  1.017593E+001, -3.402605E-001, -4.753636E+000,  3.200323E-001
  1.111502E+002, -7.239078E+001,  0.000000E+000,  2.363538E+001, -1.462034E+000, -4.627796E+000,  3.205217E-001
  1.101951E+002, -7.292658E+001,  0.000000E+000,  3.661721E+001, -2.490066E+000, -4.504503E+000,  3.200819E-001
  1.081743E+002, -7.387226E+001,  0.000000E+000,  4.872671E+001, -3.384408E+000, -4.364119E+000,  3.203520E-001
  1.042089E+002, -7.596145E+001,  0.000000E+000,  5.906507E+001, -4.032611E+000, -4.150565E+000,  3.205179E-001
  9.962743E+001, -7.801606E+001,  0.000000E+000,  6.708682E+001, -4.463908E+000, -3.875287E+000,  3.205493E-001
  9.636462E+001, -7.827093E+001,  0.000000E+000,  7.252123E+001, -4.733932E+000, -3.589596E+000,  3.205212E-001
  9.392657E+001, -7.734858E+001,  0.000000E+000,  7.652981E+001, -4.873965E+000, -3.311621E+000,  3.200585E-001
  9.170794E+001, -7.598575E+001,  0.000000E+000,  7.993897E+001, -4.917594E+000, -3.062942E+000,  3.201881E-001
  8.936161E+001, -7.429614E+001,  0.000000E+000,  8.319562E+001, -4.904691E+000, -2.788039E+000,  3.204920E-001
  9.137433E+001, -6.327016E+001,  0.000000E+000, -8.594026E+001,  5.515481E+000, -2.546963E+000,  3.206469E-001
  9.417080E+001, -6.431831E+001,  0.000000E+000, -8.273040E+001,  5.563313E+000, -3.032949E+000,  3.200474E-001
  9.745533E+001, -6.488977E+001,  0.000000E+000, -7.876171E+001,  5.551446E+000, -3.538641E+000,  3.204481E-001
  1.020559E+002, -6.415704E+001,  0.000000E+000, -7.296711E+001,  5.355806E+000, -4.097664E+000,  3.201223E-001
  1.083648E+002, -6.159909E+001,  0.000000E+000, -6.482186E+001,  4.952283E+000, -4.700382E+000,  3.202444E-001
  1.152746E+002, -5.815388E+001,  0.000000E+000, -5.514519E+001,  4.417445E+000, -5.255733E+000,  3.200503E-001
  1.214234E+002, -5.512417E+001,  0.000000E+000, -4.428782E+001,  3.751414E+000, -5.688922E+000,  3.204376E-001
  1.252492E+002, -5.398079E+001,  0.000000E+000, -3.175935E+001,  2.893272E+000, -5.857462E+000,  3.203380E-001
  1.273281E+002, -5.397881E+001,  0.000000E+000, -1.798877E+001,  1.889185E+000, -5.770186E+000,  3.203523E-001
  1.283057E+002, -5.446347E+001,  0.000000E+000, -3.811289E+000,  6.995910E-001, -5.665531E+000,  3.204430E-001
  1.284947E+002, -5.509441E+001,  0.000000E+000,  1.042058E+001, -6.069695E-001, -5.547864E+000,  3.200938E-001
  1.277169E+002, -5.599294E+001,  0.000000E+000,  2.442739E+001, -1.867661E+000, -5.374602E+000,  3.202378E-001
  1.250693E+002, -5.797134E+001,  0.000000E+000,  3.751915E+001, -2.969924E+000, -5.122191E+000,  3.200347E-001
  1.196605E+002, -6.194202E+001,  0.000000E+000,  4.895700E+001, -3.802538E+000, -4.678281E+000,  3.201544E-001
  1.132770E+002, -6.620512E+001,  0.000000E+000,  5.905052E+001, -4.430180E+000, -4.216078E+000,  3.202234E-001
  1.073848E+002, -6.939756E+001,  0.000000E+000,  6.757943E+001, -4.943872E+000, -3.735657E+000,  3.205711E-001
  1.031883E+002, -7.024031E+001,  0.000000E+000,  7.361650E+001, -5.273058E+000, -3.281910E+000,  3.205783E-001
  1.001511E+002, -6.957320E+001,  0.000000E+000,  7.788110E+001, -5.406544E+000, -2.953741E+000,  3.202175E-001
  9.743752E+001, -6.832455E+001,  0.000000E+000,  8.143417E+001, -5.445350E+000, -2.622175E+000,  3.200442E-001
  9.450841E+001, -6.649913E+001,  0.000000E+000,  8.502044E+001, -5.446526E+000, -2.272164E+000,  3.201053E-001
  9.604107E+001, -5.603078E+001,  0.000000E+000, -8.743107E+001,  5.885550E+000, -1.797740E+000,  3.206630E-001
  9.923176E+001, -5.714401E+001,  0.000000E+000, -8.404781E+001,  5.899672E+000, -2.297895E+000,  3.204209E-001
  1.030155E+002, -5.755471E+001,  0.000000E+000, -7.980803E+001,  5.843892E+000, -2.920066E+000,  3.203262E-001
  1.085232E+002, -5.630671E+001,  0.000000E+000, -7.345615E+001,  5.602229E+000, -3.657987E+000,  3.200462E-001
  1.157463E+002, -5.309272E+001,  0.000000E+000, -6.482401E+001,  5.150488E+000, -4.422227E+000,  3.200122E-001
  1.236608E+002, -4.889004E+001,  0.000000E+000, -5.483710E+001,  4.579434E+000, -5.143580E+000,  3.200745E-001
  1.316658E+002, -4.417143E+001,  0.000000E+000, -4.405119E+001,  3.900687E+000, -5.827818E+000,  3.204815E-001
  1.390877E+002, -3.959815E+001,  0.000000E+000, -3.225064E+001,  3.077614E+000, -6.371753E+000,  3.202925E-001
  1.439026E+002, -3.708039E+001,  0.000000E+000, -1.886445E+001,  1.952829E+000, -6.507558E+000,  3.204649E-001
  1.456213E+002, -3.697493E+001,  0.000000E+000, -4.293381E+000,  6.176831E-001, -6.476309E+000,  3.205386E-001
  1.453707E+002, -3.798152E+001,  0.000000E+000,  1.046311E+001, -8.369069E-001, -6.284707E+000,  3.202414E-001
  1.423371E+002, -4.092039E+001,  0.000000E+000,  2.430433E+001, -2.169876E+000, -5.946208E+000,  3.204517E-001
  1.359319E+002, -4.636961E+001,  0.000000E+000,  3.663820E+001, -3.236327E+000, -5.350411E+000,  3.201955E-001
  1.285742E+002, -5.210435E+001,  0.000000E+000,  4.801291E+001, -4.098889E+000, -4.655997E+000,  3.200110E-001
  1.211189E+002, -5.725263E+001,  0.000000E+000,  5.852152E+001, -4.802408E+000, -3.997683E+000,  3.204712E-001
  1.142650E+002, -6.111059E+001,  0.000000E+000,  6.772786E+001, -5.386292E+000, -3.275147E+000,  3.203158E-001
  1.090721E+002, -6.265314E+001,  0.000000E+000,  7.457068E+001, -5.756762E+000, -2.728115E+000,  3.202716E-001
  1.055081E+002, -6.215585E+001,  0.000000E+000,  7.919453E+001, -5.909499E+000, -2.326147E+000,  3.203446E-001
  1.023671E+002, -6.073552E+001,  0.000000E+000,  8.305771E+001, -5.964083E+000, -1.885451E+000,  3.204943E-001
  9.882208E+001, -5.865070E+001,  0.000000E+000,  8.705593E+001, -5.982388E+000, -1.453825E+000,  3.203631E-001
  9.904680E+001, -4.949649E+001,  0.000000E+000, -8.899850E+001,  6.249898E+000, -6.845922E-001,  3.200494E-001
  1.026584E+002, -5.088820E+001,  0.000000E+000, -8.530745E+001,  6.250891E+000, -1.169695E+000,  3.201593E-001
  1.070216E+002, -5.120298E+001,  0.000000E+000, -8.063634E+001,  6.149406E+000, -1.829239E+000,  3.204930E-001
  1.134201E+002, -4.945129E+001,  0.000000E+000, -7.356235E+001,  5.836764E+000, -2.765244E+000,  3.201643E-001
  1.214001E+002, -4.581384E+001,  0.000000E+000, -6.443007E+001,  5.335912E+000, -3.762062E+000,  3.205160E-001
  1.300747E+002, -4.111762E+001,  0.000000E+000, -5.403488E+001,  4.692454E+000, -4.661373E+000,  3.205093E-001
  1.390307E+002, -3.571650E+001,  0.000000E+000, -4.282572E+001,  3.931805E+000, -5.518124E+000,  3.203769E-001
  1.479045E+002, -2.978752E+001,  0.000000E+000, -3.087984E+001,  3.060520E+000, -6.286366E+000,  3.200422E-001
  1.557777E+002, -2.422087E+001,  0.000000E+000, -1.824055E+001,  1.958927E+000, -6.836338E+000,  3.204629E-001
  1.604075E+002, -2.123442E+001,  0.000000E+000, -4.614684E+000,  5.192230E-001, -7.016737E+000,  3.201780E-001
  1.583379E+002, -2.395317E+001,  0.000000E+000,  9.276281E+000, -9.496396E-001, -6.645622E+000,  3.203463E-001
  1.516535E+002, -3.039879E+001,  0.000000E+000,  2.226709E+001, -2.250183E+000, -5.978321E+000,  3.200291E-001
  1.437625E+002, -3.725540E+001,  0.000000E+000,  3.473129E+001, -3.384623E+000, -5.149859E+000,  3.203063E-001
  1.355421E+002, -4.367393E+001,  0.000000E+000,  4.655043E+001, -4.312972E+000, -4.268390E+000,  3.201403E-001
  1.273372E+002, -4.931067E+001,  0.000000E+000,  5.759303E+001, -5.103926E+000, -3.324163E+000,  3.201067E-001
  1.196658E+002, -5.377040E+001,  0.000000E+000,  6.748887E+001, -5.730126E+000, -2.452185E+000,  3.204635E-001
  1.134507E+002, -5.597206E+001,  0.000000E+000,  7.529179E+001, -6.139880E+000, -1.766440E+000,  3.201321E-001
  1.092104E+002, -5.560719E+001,  0.000000E+000,  8.051427E+001, -6.341829E+000, -1.211056E+000,  3.203562E-001
  1.055143E+002, -5.399032E+001,  0.000000E+000,  8.480493E+001, -6.427216E+000, -6.881233E-001,  3.200844E-001
  1.012404E+002, -5.154328E+001,  0.000000E+000,  8.937091E+001, -6.459073E+000, -3.064689E-001,  3.203513E-001
  1.007367E+002, -4.313351E+001,  0.000000E+000, -9.076177E+001,  6.542056E+000,  8.912224E-001,  3.202221E-001
  1.049192E+002, -4.481115E+001,  0.000000E+000, -8.660327E+001,  6.508916E+000,  4.547890E-001,  3.201870E-001
  1.098832E+002, -4.518711E+001,  0.000000E+000, -8.127401E+001,  6.349976E+000, -2.263245E-001,  3.200084E-001
  1.170134E+002, -4.318170E+001,  0.000000E+000, -7.339121E+001,  5.970150E+000, -1.274617E+000,  3.205117E-001
  1.255477E+002, -3.943345E+001,  0.000000E+000, -6.367057E+001,  5.427341E+000, -2.536376E+000,  3.200412E-001
  1.346449E+002, -3.465627E+001,  0.000000E+000, -5.285008E+001,  4.750303E+000, -3.681123E+000,  3.200952E-001
  1.440893E+002, -2.911990E+001,  0.000000E+000, -4.114337E+001,  3.924404E+000, -4.734458E+000,  3.204255E-001
  1.533914E+002, -2.289852E+001,  0.000000E+000, -2.884776E+001,  2.959461E+000, -5.715101E+000,  3.205135E-001
  1.617815E+002, -1.678179E+001,  0.000000E+000, -1.628641E+001,  1.842966E+000, -6.507703E+000,  3.201635E-001
  1.670289E+002, -1.290521E+001,  0.000000E+000, -4.400171E+000,  4.882177E-001, -6.863145E+000,  3.204521E-001
  1.645436E+002, -1.597847E+001,  0.000000E+000,  6.709008E+000, -8.401486E-001, -6.341437E+000,  3.205229E-001
  1.574068E+002, -2.288799E+001,  0.000000E+000,  1.952979E+001, -2.153864E+000, -5.475737E+000,  3.206000E-001
  1.491170E+002, -3.002927E+001,  0.000000E+000,  3.237885E+001, -3.353628E+000, -4.450007E+000,  3.201562E-001
  1.404977E+002, -3.665450E+001,  0.000000E+000,  4.469858E+001, -4.379331E+000, -3.328696E+000,  3.201596E-001
  1.318514E+002, -4.249002E+001,  0.000000E+000,  5.633692E+001, -5.222772E+000, -2.189286E+000,  3.204414E-001
  1.237113E+002, -4.699627E+001,  0.000000E+000,  6.694666E+001, -5.906200E+000, -1.083643E+000,  3.201748E-001
  1.166766E+002, -4.960797E+001,  0.000000E+000,  7.573542E+001, -6.394363E+000, -1.707748E-001,  3.201989E-001
  1.116360E+002, -4.943536E+001,  0.000000E+000,  8.184772E+001, -6.657323E+000,  5.184712E-001,  3.204720E-001
  1.072810E+002, -4.749905E+001,  0.000000E+000,  8.676440E+001, -6.739508E+000,  9.675470E-001,  3.203147E-001
  1.022040E+002, -4.468943E+001,  0.000000E+000,  9.198592E+001, -6.779609E+000,  1.194983E+000,  3.201021E-001
  1.012038E+002, -3.672394E+001,  0.000000E+000, -9.280012E+001,  6.680655E+000,  2.826281E+000,  3.205037E-001
  1.061586E+002, -3.877776E+001,  0.000000E+000, -8.793788E+001,  6.582711E+000,  2.530776E+000,  3.205268E-001
  1.119711E+002, -3.896913E+001,  0.000000E+000, -8.177536E+001,  6.361022E+000,  1.869251E+000,  3.201781E-001
  1.198452E+002, -3.676432E+001,  0.000000E+000, -7.310666E+001,  5.951054E+000,  7.667923E-001,  3.203660E-001
  1.289071E+002, -3.297696E+001,  0.000000E+000, -6.279855E+001,  5.386305E+000, -5.798149E-001,  3.202166E-001
  1.385189E+002, -2.809723E+001,  0.000000E+000, -5.151325E+001,  4.684978E+000, -1.965580E+000,  3.200230E-001
  1.484884E+002, -2.241729E+001,  0.000000E+000, -3.930577E+001,  3.845775E+000, -3.299342E+000,  3.205586E-001
  1.582350E+002, -1.604399E+001,  0.000000E+000, -2.659129E+001,  2.785224E+000, -4.610018E+000,  3.200393E-001
  1.668834E+002, -9.709526E+000,  0.000000E+000, -1.409416E+001,  1.641231E+000, -5.703710E+000,  3.202469E-001
  1.710010E+002, -6.724998E+000,  0.000000E+000, -4.294400E+000,  4.381703E-001, -6.074990E+000,  3.200756E-001
  1.695398E+002, -8.610303E+000,  0.000000E+000,  4.298581E+000, -7.147352E-001, -5.596118E+000,  3.201439E-001
  1.627919E+002, -1.508837E+001,  0.000000E+000,  1.658663E+001, -2.046367E+000, -4.477064E+000,  3.203401E-001
  1.541593E+002, -2.242493E+001,  0.000000E+000,  2.983463E+001, -3.294541E+000, -3.173524E+000,  3.205131E-001
  1.450378E+002, -2.928914E+001,  0.000000E+000,  4.267867E+001, -4.369711E+000, -1.773030E+000,  3.204253E-001
  1.359154E+002, -3.518683E+001,  0.000000E+000,  5.494163E+001, -5.234840E+000, -4.200217E-001,  3.202591E-001
  1.271451E+002, -3.992220E+001,  0.000000E+000,  6.623767E+001, -5.953638E+000,  8.596590E-001,  3.204310E-001
  1.192390E+002, -4.293570E+001,  0.000000E+000,  7.599103E+001, -6.468306E+000,  1.953026E+000,  3.206075E-001
  1.131344E+002, -4.308851E+001,  0.000000E+000,  8.323051E+001, -6.750484E+000,  2.693482E+000,  3.200442E-001
  1.078651E+002, -4.089973E+001,  0.000000E+000,  8.904724E+001, -6.859652E+000,  2.995887E+000,  3.203009E-001
  1.021727E+002, -3.785131E+001,  0.000000E+000,  9.481574E+001, -6.950204E+000,  2.997353E+000,  3.200999E-001
  1.007414E+002, -2.992342E+001,  0.000000E+000, -9.514903E+001,  6.733459E+000,  4.960665E+000,  3.206182E-001
  1.068861E+002, -3.193619E+001,  0.000000E+000, -8.938421E+001,  6.558688E+000,  4.848445E+000,  3.202288E-001
  1.140082E+002, -3.172936E+001,  0.000000E+000, -8.210692E+001,  6.273200E+000,  4.243038E+000,  3.203423E-001
  1.226792E+002, -2.919347E+001,  0.000000E+000, -7.274346E+001,  5.836749E+000,  3.179720E+000,  3.203310E-001
  1.323193E+002, -2.530317E+001,  0.000000E+000, -6.190066E+001,  5.276114E+000,  1.888242E+000,  3.200170E-001
  1.424822E+002, -2.046388E+001,  0.000000E+000, -5.006857E+001,  4.546530E+000,  4.229039E-001,  3.204769E-001
  1.530257E+002, -1.452819E+001,  0.000000E+000, -3.734215E+001,  3.654937E+000, -1.065982E+000,  3.204872E-001
  1.632082E+002, -8.015672E+000,  0.000000E+000, -2.423350E+001,  2.572697E+000, -2.619937E+000,  3.203724E-001
  1.715787E+002, -2.087544E+000,  0.000000E+000, -1.208787E+001,  1.360587E+000, -4.036643E+000,  3.201763E-001
  1.743805E+002, -2.157723E-001,  0.000000E+000, -4.283842E+000,  3.469089E-001, -4.368340E+000,  3.205336E-001
  1.736978E+002, -1.139114E+000,  0.000000E+000,  2.742592E+000, -6.537262E-001, -3.971634E+000,  3.201865E-001
  1.683332E+002, -6.180394E+000,  0.000000E+000,  1.359642E+001, -1.941325E+000, -2.763825E+000,  3.203497E-001
  1.594277E+002, -1.361462E+001,  0.000000E+000,  2.712226E+001, -3.210309E+000, -1.184958E+000,  3.201016E-001
  1.498390E+002, -2.056046E+001,  0.000000E+000,  4.056273E+001, -4.313039E+000,  4.457754E-001,  3.201653E-001
  1.401188E+002, -2.662664E+001,  0.000000E+000,  5.344211E+001, -5.193144E+000,  1.969661E+000,  3.200087E-001
  1.306678E+002, -3.148606E+001,  0.000000E+000,  6.543901E+001, -5.888049E+000,  3.277174E+000,  3.205455E-001
  1.219516E+002, -3.472334E+001,  0.000000E+000,  7.599292E+001, -6.369385E+000,  4.377757E+000,  3.205481E-001
  1.143916E+002, -3.555165E+001,  0.000000E+000,  8.462831E+001, -6.663247E+000,  5.062907E+000,  3.203436E-001
  1.077464E+002, -3.372039E+001,  0.000000E+000,  9.162333E+001, -6.821938E+000,  5.158863E+000,  3.203343E-001
  1.013791E+002, -3.077480E+001,  0.000000E+000,  9.785925E+001, -6.977505E+000,  4.936891E+000,  3.203209E-001
  1.001595E+002, -2.122873E+001,  0.000000E+000, -9.729658E+001,  6.587031E+000,  7.038949E+000,  3.203842E-001
  1.075771E+002, -2.247198E+001,  0.000000E+000, -9.052428E+001,  6.308333E+000,  7.047735E+000,  3.200626E-001
  1.160108E+002, -2.198611E+001,  0.000000E+000, -8.222058E+001,  5.986686E+000,  6.626253E+000,  3.204643E-001
  1.254894E+002, -1.974832E+001,  0.000000E+000, -7.227513E+001,  5.590007E+000,  5.837380E+000,  3.203818E-001
  1.357379E+002, -1.606951E+001,  0.000000E+000, -6.098990E+001,  5.061033E+000,  4.738369E+000,  3.205458E-001
  1.465592E+002, -1.115940E+001,  0.000000E+000, -4.857661E+001,  4.344598E+000,  3.415406E+000,  3.200216E-001
  1.576752E+002, -5.146342E+000,  0.000000E+000, -3.527060E+001,  3.395488E+000,  1.835036E+000,  3.202994E-001
  1.682564E+002,  1.450462E+000,  0.000000E+000, -2.182500E+001,  2.281093E+000,  1.394917E-001,  3.202951E-001
  1.756685E+002,  6.567858E+000,  0.000000E+000, -1.072057E+001,  1.096906E+000, -1.188780E+000,  3.201851E-001
  1.776709E+002,  7.829673E+000,  0.000000E+000, -4.213991E+000,  2.120795E-001, -1.402154E+000,  3.205851E-001
  1.773528E+002,  7.307178E+000,  0.000000E+000,  1.964465E+000, -6.921105E-001, -1.124907E+000,  3.200698E-001
  1.736836E+002,  3.978126E+000,  0.000000E+000,  1.081844E+001, -1.824004E+000, -1.506884E-001,  3.201667E-001
  1.648361E+002, -3.216504E+000,  0.000000E+000,  2.435088E+001, -3.100474E+000,  1.558452E+000,  3.204867E-001
  1.547342E+002, -1.029470E+001,  0.000000E+000,  3.835721E+001, -4.208251E+000,  3.259929E+000,  3.204224E-001
  1.443531E+002, -1.630804E+001,  0.000000E+000,  5.189972E+001, -5.036904E+000,  4.736901E+000,  3.204275E-001
  1.341658E+002, -2.094092E+001,  0.000000E+000,  6.452532E+001, -5.606405E+000,  5.903604E+000,  3.201027E-001
  1.245486E+002, -2.381354E+001,  0.000000E+000,  7.583315E+001, -6.012724E+000,  6.747494E+000,  3.204297E-001
  1.157367E+002, -2.465345E+001,  0.000000E+000,  8.552254E+001, -6.275583E+000,  7.148390E+000,  3.200074E-001
  1.078014E+002, -2.377537E+001,  0.000000E+000,  9.365700E+001, -6.511451E+000,  7.147528E+000,  3.202894E-001
  1.005922E+002, -2.188830E+001,  0.000000E+000,  1.005594E+002, -6.762984E+000,  6.852022E+000,  3.202528E-001
  1.000499E+002, -9.195077E+000,  0.000000E+000, -9.850151E+001,  6.214053E+000,  8.642973E+000,  3.204006E-001
  1.083298E+002, -9.334490E+000,  0.000000E+000, -9.100286E+001,  5.881980E+000,  8.666026E+000,  3.200960E-001
  1.175617E+002, -8.591507E+000,  0.000000E+000, -8.215860E+001,  5.538237E+000,  8.517600E+000,  3.205029E-001
  1.278378E+002, -6.749962E+000,  0.000000E+000, -7.176904E+001,  5.138457E+000,  8.166473E+000,  3.201189E-001
  1.388928E+002, -3.754319E+000,  0.000000E+000, -6.003169E+001,  4.640908E+000,  7.581123E+000,  3.204691E-001
  1.505187E+002,  6.865116E-001,  0.000000E+000, -4.704221E+001,  3.983882E+000,  6.640825E+000,  3.204525E-001
  1.623403E+002,  6.524473E+000,  0.000000E+000, -3.317896E+001,  3.085067E+000,  5.226244E+000,  3.203304E-001
  1.732139E+002,  1.306987E+001,  0.000000E+000, -1.947077E+001,  1.923105E+000,  3.561543E+000,  3.202033E-001
  1.791871E+002,  1.708669E+001,  0.000000E+000, -9.895995E+000,  8.469270E-001,  2.550485E+000,  3.203635E-001
  1.808578E+002,  1.811757E+001,  0.000000E+000, -4.110558E+000,  5.251322E-002,  2.402903E+000,  3.200326E-001
  1.807961E+002,  1.792035E+001,  0.000000E+000,  1.429579E+000, -7.740831E-001,  2.600005E+000,  3.201850E-001
  1.783732E+002,  1.574857E+001,  0.000000E+000,  8.709286E+000, -1.727157E+000,  3.242422E+000,  3.205105E-001
  1.701985E+002,  9.429555E+000,  0.000000E+000,  2.157002E+001, -2.943574E+000,  4.781541E+000,  3.202057E-001
  1.594482E+002,  2.656440E+000,  0.000000E+000,  3.618106E+001, -3.948553E+000,  6.396668E+000,  3.202031E-001
  1.482637E+002, -2.726154E+000,  0.000000E+000,  5.036693E+001, -4.613605E+000,  7.571666E+000,  3.202418E-001
  1.371554E+002, -6.558557E+000,  0.000000E+000,  6.362052E+001, -5.056116E+000,  8.252693E+000,  3.201721E-001
  1.266202E+002, -8.972777E+000,  0.000000E+000,  7.553751E+001, -5.421443E+000,  8.580656E+000,  3.204369E-001
  1.169728E+002, -1.009465E+001,  0.000000E+000,  8.586043E+001, -5.722764E+000,  8.652474E+000,  3.200932E-001
  1.082503E+002, -1.023477E+001,  0.000000E+000,  9.466430E+001, -5.977215E+000,  8.561514E+000,  3.201874E-001
  1.004635E+002, -9.637309E+000,  0.000000E+000,  1.020732E+002, -6.294687E+000,  8.329418E+000,  3.202703E-001
  1.002901E+002,  5.411029E+000,  0.000000E+000, -9.875270E+001,  5.761327E+000,  9.743447E+000,  3.202833E-001
  1.089851E+002,  6.363012E+000,  0.000000E+000, -9.089182E+001,  5.410068E+000,  9.838486E+000,  3.203816E-001
  1.187283E+002,  8.041815E+000,  0.000000E+000, -8.163978E+001,  5.039529E+000,  9.870550E+000,  3.201411E-001
  1.294629E+002,  1.044797E+001,  0.000000E+000, -7.101476E+001,  4.611292E+000,  9.801661E+000,  3.205028E-001
  1.411531E+002,  1.373286E+001,  0.000000E+000, -5.896115E+001,  4.088307E+000,  9.564640E+000,  3.201535E-001
  1.536230E+002,  1.796401E+001,  0.000000E+000, -4.554005E+001,  3.434117E+000,  9.138685E+000,  3.200888E-001
  1.663642E+002,  2.347516E+001,  0.000000E+000, -3.113229E+001,  2.602201E+000,  8.315343E+000,  3.200543E-001
  1.775627E+002,  2.978402E+001,  0.000000E+000, -1.726743E+001,  1.494479E+000,  7.034513E+000,  3.201510E-001
  1.822754E+002,  3.325987E+001,  0.000000E+000, -9.084977E+000,  5.552929E-001,  6.423769E+000,  3.200580E-001
  1.837310E+002,  3.466085E+001,  0.000000E+000, -3.831924E+000, -1.599653E-001,  6.296519E+000,  3.205497E-001
  1.837638E+002,  3.481903E+001,  0.000000E+000,  1.089257E+000, -8.164357E-001,  6.357645E+000,  3.200818E-001
  1.820117E+002,  3.333918E+001,  0.000000E+000,  7.380547E+000, -1.571448E+000,  6.818280E+000,  3.204627E-001
  1.748904E+002,  2.838751E+001,  0.000000E+000,  1.890004E+001, -2.540123E+000,  7.884229E+000,  3.201023E-001
  1.632671E+002,  2.201229E+001,  0.000000E+000,  3.411270E+001, -3.384946E+000,  8.937407E+000,  3.201618E-001
  1.511564E+002,  1.686698E+001,  0.000000E+000,  4.886655E+001, -4.000349E+000,  9.493258E+000,  3.200075E-001
  1.393245E+002,  1.276261E+001,  0.000000E+000,  6.249801E+001, -4.446935E+000,  9.718376E+000,  3.204463E-001
  1.282235E+002,  9.670522E+000,  0.000000E+000,  7.473435E+001, -4.788312E+000,  9.766221E+000,  3.201042E-001
  1.180689E+002,  7.443927E+000,  0.000000E+000,  8.550123E+001, -5.084768E+000,  9.708676E+000,  3.203098E-001
  1.089465E+002,  6.066327E+000,  0.000000E+000,  9.466817E+001, -5.368990E+000,  9.540085E+000,  3.200118E-001
  1.007837E+002,  5.178439E+000,  0.000000E+000,  1.024891E+002, -5.711664E+000,  9.336132E+000,  3.204039E-001
  1.006536E+002,  2.189807E+001,  0.000000E+000, -9.815010E+001,  5.175437E+000,  1.045213E+001,  3.204899E-001
  1.096163E+002,  2.421744E+001,  0.000000E+000, -8.997566E+001,  4.807461E+000,  1.063163E+001,  3.202202E-001
  1.196428E+002,  2.728494E+001,  0.000000E+000, -8.043242E+001,  4.415614E+000,  1.076547E+001,  3.200159E-001
  1.306663E+002,  3.118093E+001,  0.000000E+000, -6.953288E+001,  3.948766E+000,  1.080337E+001,  3.202430E-001
  1.426994E+002,  3.604736E+001,  0.000000E+000, -5.718908E+001,  3.358891E+000,  1.069194E+001,  3.201321E-001
  1.555367E+002,  4.187505E+001,  0.000000E+000, -4.347476E+001,  2.665092E+000,  1.041104E+001,  3.200657E-001
  1.686656E+002,  4.837754E+001,  0.000000E+000, -2.886739E+001,  1.813313E+000,  9.896292E+000,  3.202391E-001
  1.799261E+002,  5.478446E+001,  0.000000E+000, -1.519907E+001,  8.101601E-001,  9.034957E+000,  3.202281E-001
  1.837999E+002,  5.824784E+001,  0.000000E+000, -8.011865E+000,  1.437521E-001,  8.589893E+000,  3.202886E-001
  1.849667E+002,  5.990943E+001,  0.000000E+000, -3.319936E+000, -3.557240E-001,  8.429751E+000,  3.203051E-001
  1.850530E+002,  6.035509E+001,  0.000000E+000,  9.654725E-001, -8.292300E-001,  8.432331E+000,  3.204186E-001
  1.837648E+002,  5.931297E+001,  0.000000E+000,  6.333226E+000, -1.365915E+000,  8.719181E+000,  3.201840E-001
  1.775593E+002,  5.504122E+001,  0.000000E+000,  1.657095E+001, -2.058136E+000,  9.425532E+000,  3.202390E-001
  1.655401E+002,  4.835752E+001,  0.000000E+000,  3.181607E+001, -2.783498E+000,  1.006323E+001,  3.204896E-001
  1.530729E+002,  4.202104E+001,  0.000000E+000,  4.668754E+001, -3.366517E+000,  1.037055E+001,  3.200608E-001
  1.409323E+002,  3.642007E+001,  0.000000E+000,  6.051647E+001, -3.834252E+000,  1.046875E+001,  3.200200E-001
  1.295541E+002,  3.150700E+001,  0.000000E+000,  7.304867E+001, -4.187113E+000,  1.043104E+001,  3.201985E-001
  1.191328E+002,  2.748031E+001,  0.000000E+000,  8.414106E+001, -4.502858E+000,  1.030023E+001,  3.200125E-001
  1.097301E+002,  2.432065E+001,  0.000000E+000,  9.371537E+001, -4.797130E+000,  1.008939E+001,  3.202064E-001
  1.014126E+002,  2.192025E+001,  0.000000E+000,  1.017784E+002, -5.147383E+000,  9.860057E+000,  3.202889E-001
  1.011232E+002,  3.944165E+001,  0.000000E+000, -9.659091E+001,  4.395898E+000,  1.076011E+001,  3.203762E-001
  1.102606E+002,  4.343631E+001,  0.000000E+000, -8.808921E+001,  4.026795E+000,  1.099979E+001,  3.203563E-001
  1.204546E+002,  4.830519E+001,  0.000000E+000, -7.825727E+001,  3.639655E+000,  1.117346E+001,  3.201684E-001
  1.316299E+002,  5.405493E+001,  0.000000E+000, -6.709115E+001,  3.139716E+000,  1.124746E+001,  3.202504E-001
  1.436878E+002,  6.051032E+001,  0.000000E+000, -5.465225E+001,  2.535675E+000,  1.116195E+001,  3.201584E-001
  1.565224E+002,  6.765713E+001,  0.000000E+000, -4.099514E+001,  1.863758E+000,  1.098687E+001,  3.200957E-001
  1.696078E+002,  7.530972E+001,  0.000000E+000, -2.649109E+001,  1.058895E+000,  1.059171E+001,  3.202377E-001
  1.805195E+002,  8.236770E+001,  0.000000E+000, -1.325172E+001,  1.624231E-001,  9.817822E+000,  3.200448E-001
  1.837751E+002,  8.582299E+001,  0.000000E+000, -6.897734E+000, -3.277765E-001,  9.400504E+000,  3.200782E-001
  1.846786E+002,  8.743517E+001,  0.000000E+000, -2.790382E+000, -6.611846E-001,  9.254448E+000,  3.203652E-001
  1.847754E+002,  8.807316E+001,  0.000000E+000,  9.935020E-001, -9.333493E-001,  9.225586E+000,  3.205198E-001
  1.838286E+002,  8.741847E+001,  0.000000E+000,  5.518049E+000, -1.226291E+000,  9.417159E+000,  3.200244E-001
  1.785431E+002,  8.339992E+001,  0.000000E+000,  1.447635E+001, -1.661125E+000,  9.990375E+000,  3.202666E-001
  1.666557E+002,  7.581848E+001,  0.000000E+000,  2.937731E+001, -2.283917E+000,  1.046169E+001,  3.200832E-001
  1.541957E+002,  6.828705E+001,  0.000000E+000,  4.412742E+001, -2.791597E+000,  1.067259E+001,  3.203416E-001
  1.420822E+002,  6.126464E+001,  0.000000E+000,  5.788474E+001, -3.236562E+000,  1.070689E+001,  3.201778E-001
  1.307358E+002,  5.485710E+001,  0.000000E+000,  7.037550E+001, -3.583408E+000,  1.062041E+001,  3.200877E-001
  1.202350E+002,  4.899925E+001,  0.000000E+000,  8.161587E+001, -3.880072E+000,  1.042397E+001,  3.202983E-001
  1.106948E+002,  4.377088E+001,  0.000000E+000,  9.146881E+001, -4.160711E+000,  1.012801E+001,  3.203524E-001
  1.022045E+002,  3.936530E+001,  0.000000E+000,  9.986038E+001, -4.444460E+000,  9.792094E+000,  3.201450E-001
  1.018456E+002,  5.693564E+001,  0.000000E+000, -9.393195E+001,  3.522148E+000,  1.055243E+001,  3.203156E-001
  1.110349E+002,  6.265535E+001,  0.000000E+000, -8.516590E+001,  3.149994E+000,  1.082459E+001,  3.200665E-001
  1.211912E+002,  6.910533E+001,  0.000000E+000, -7.521579E+001,  2.727217E+000,  1.104530E+001,  3.203406E-001
  1.322471E+002,  7.620573E+001,  0.000000E+000, -6.407624E+001,  2.248669E+000,  1.116217E+001,  3.204517E-001
  1.441484E+002,  8.393721E+001,  0.000000E+000, -5.175323E+001,  1.696439E+000,  1.115207E+001,  3.201715E-001
  1.568350E+002,  9.229349E+001,  0.000000E+000, -3.829328E+001,  1.089737E+000,  1.108302E+001,  3.202073E-001
  1.697345E+002,  1.010648E+002,  0.000000E+000, -2.405897E+001,  3.600592E-001,  1.079818E+001,  3.204663E-001
  1.801081E+002,  1.088384E+002,  0.000000E+000, -1.143129E+001, -3.830688E-001,  1.004713E+001,  3.200497E-001
  1.827718E+002,  1.121875E+002,  0.000000E+000, -5.862437E+000, -6.585729E-001,  9.597312E+000,  3.204613E-001
  1.834363E+002,  1.136899E+002,  0.000000E+000, -2.269839E+000, -8.288788E-001,  9.438051E+000,  3.203529E-001
  1.834719E+002,  1.143915E+002,  0.000000E+000,  1.147142E+000, -9.470586E-001,  9.364271E+000,  3.201547E-001
  1.827754E+002,  1.140667E+002,  0.000000E+000,  4.969061E+000, -1.042439E+000,  9.504544E+000,  3.201557E-001
  1.785251E+002,  1.104768E+002,  0.000000E+000,  1.251663E+001, -1.289059E+000,  1.003444E+001,  3.204204E-001
  1.670965E+002,  1.019595E+002,  0.000000E+000,  2.681529E+001, -1.829119E+000,  1.047343E+001,  3.201130E-001
  1.547707E+002,  9.315336E+001,  0.000000E+000,  4.130533E+001, -2.263386E+000,  1.057316E+001,  3.203451E-001
  1.428284E+002,  8.470190E+001,  0.000000E+000,  5.479306E+001, -2.616957E+000,  1.044292E+001,  3.202187E-001
  1.316679E+002,  7.675502E+001,  0.000000E+000,  6.706078E+001, -2.928154E+000,  1.020255E+001,  3.200668E-001
  1.213384E+002,  6.933105E+001,  0.000000E+000,  7.811879E+001, -3.193364E+000,  9.895897E+000,  3.201496E-001
  1.118685E+002,  6.249854E+001,  0.000000E+000,  8.796764E+001, -3.438654E+000,  9.541676E+000,  3.201951E-001
  1.033327E+002,  5.634142E+001,  0.000000E+000,  9.659252E+001, -3.708400E+000,  9.158680E+000,  3.203480E-001
  1.028636E+002,  7.282064E+001,  0.000000E+000, -9.028309E+001,  2.662124E+000,  9.606985E+000,  3.203598E-001
  1.119282E+002,  7.972995E+001,  0.000000E+000, -8.145511E+001,  2.230846E+000,  9.856159E+000,  3.202658E-001
  1.218670E+002,  8.734283E+001,  0.000000E+000, -7.156488E+001,  1.795304E+000,  1.008222E+001,  3.203362E-001
  1.326826E+002,  9.558990E+001,  0.000000E+000, -6.056245E+001,  1.351110E+000,  1.028401E+001,  3.200155E-001
  1.442618E+002,  1.044667E+002,  0.000000E+000, -4.852723E+001,  8.580970E-001,  1.042086E+001,  3.201341E-001
  1.566565E+002,  1.140106E+002,  0.000000E+000, -3.537331E+001,  3.268912E-001,  1.049884E+001,  3.204927E-001
  1.691941E+002,  1.239335E+002,  0.000000E+000, -2.152903E+001, -2.880952E-001,  1.035678E+001,  3.201243E-001
  1.788628E+002,  1.322883E+002,  0.000000E+000, -9.701858E+000, -8.457215E-001,  9.708853E+000,  3.204953E-001
  1.808786E+002,  1.352195E+002,  0.000000E+000, -4.979382E+000, -9.634390E-001,  9.208089E+000,  3.203050E-001
  1.813811E+002,  1.365646E+002,  0.000000E+000, -1.747860E+000, -9.453944E-001,  8.985056E+000,  3.202304E-001
  1.813646E+002,  1.372342E+002,  0.000000E+000,  1.332993E+000, -8.920548E-001,  8.874532E+000,  3.202372E-001
  1.808126E+002,  1.371969E+002,  0.000000E+000,  4.657507E+000, -8.154245E-001,  8.939804E+000,  3.203256E-001
  1.776999E+002,  1.343492E+002,  0.000000E+000,  1.067466E+001, -8.536975E-001,  9.425877E+000,  3.203479E-001
  1.670087E+002,  1.250308E+002,  0.000000E+000,  2.403353E+001, -1.237473E+000,  9.734616E+000,  3.200147E-001
  1.549334E+002,  1.148280E+002,  0.000000E+000,  3.811144E+001, -1.617614E+000,  9.651521E+000,  3.202273E-001
  1.432963E+002,  1.050490E+002,  0.000000E+000,  5.121232E+001, -1.913266E+000,  9.366444E+000,  3.200049E-001
  1.324496E+002,  9.577369E+001,  0.000000E+000,  6.313842E+001, -2.159714E+000,  9.022987E+000,  3.202942E-001
  1.224001E+002,  8.712768E+001,  0.000000E+000,  7.392114E+001, -2.410855E+000,  8.668697E+000,  3.201191E-001
  1.131661E+002,  7.912093E+001,  0.000000E+000,  8.363612E+001, -2.672610E+000,  8.332662E+000,  3.200120E-001
  1.047652E+002,  7.180189E+001,  0.000000E+000,  9.230751E+001, -2.968042E+000,  8.016923E+000,  3.200314E-001
  1.041091E+002,  8.678262E+001,  0.000000E+000, -8.606417E+001,  1.855045E+000,  8.312820E+000,  3.200410E-001
  1.129300E+002,  9.445783E+001,  0.000000E+000, -7.727475E+001,  1.423946E+000,  8.449247E+000,  3.204389E-001
  1.225708E+002,  1.027996E+002,  0.000000E+000, -6.751160E+001,  9.936379E-001,  8.566304E+000,  3.201631E-001
  1.330225E+002,  1.117877E+002,  0.000000E+000, -5.677720E+001,  5.761234E-001,  8.705381E+000,  3.202677E-001
  1.442217E+002,  1.214160E+002,  0.000000E+000, -4.501739E+001,  1.457209E-001,  8.833491E+000,  3.203456E-001
  1.561900E+002,  1.317276E+002,  0.000000E+000, -3.220163E+001, -3.061908E-001,  8.921943E+000,  3.201433E-001
  1.682328E+002,  1.423874E+002,  0.000000E+000, -1.883313E+001, -8.071901E-001,  8.840361E+000,  3.203782E-001
  1.767024E+002,  1.504552E+002,  0.000000E+000, -8.264592E+000, -1.188998E+000,  8.193204E+000,  3.203553E-001
  1.781546E+002,  1.526707E+002,  0.000000E+000, -4.298693E+000, -1.137927E+000,  7.661918E+000,  3.202212E-001
  1.785220E+002,  1.536944E+002,  0.000000E+000, -1.328358E+000, -9.459927E-001,  7.387386E+000,  3.202843E-001
  1.784960E+002,  1.542897E+002,  0.000000E+000,  1.545050E+000, -7.472271E-001,  7.239972E+000,  3.203950E-001
  1.779834E+002,  1.543005E+002,  0.000000E+000,  4.552697E+000, -5.268576E-001,  7.261902E+000,  3.203583E-001
  1.758983E+002,  1.525915E+002,  0.000000E+000,  9.164736E+000, -4.185769E-001,  7.692504E+000,  3.200027E-001
  1.665688E+002,  1.436717E+002,  0.000000E+000,  2.100338E+001, -6.690129E-001,  8.062480E+000,  3.204658E-001
  1.549315E+002,  1.325363E+002,  0.000000E+000,  3.458561E+001, -9.569758E-001,  7.911810E+000,  3.203904E-001
  1.436731E+002,  1.218978E+002,  0.000000E+000,  4.729542E+001, -1.213969E+000,  7.656432E+000,  3.204932E-001
  1.331673E+002,  1.119240E+002,  0.000000E+000,  5.890105E+001, -1.472643E+000,  7.388145E+000,  3.204447E-001
  1.234230E+002,  1.025954E+002,  0.000000E+000,  6.945393E+001, -1.723316E+000,  7.138532E+000,  3.203490E-001
  1.144769E+002,  9.396432E+001,  0.000000E+000,  7.901784E+001, -1.996325E+000,  6.918129E+000,  3.200447E-001
  1.062597E+002,  8.601099E+001,  0.000000E+000,  8.768234E+001, -2.303578E+000,  6.729033E+000,  3.200965E-001
  1.053641E+002,  9.940279E+001,  0.000000E+000, -8.167494E+001,  1.194525E+000,  6.867331E+000,  3.200416E-001
  1.139305E+002,  1.075111E+002,  0.000000E+000, -7.296323E+001,  8.052691E-001,  6.903564E+000,  3.202207E-001
  1.232298E+002,  1.162303E+002,  0.000000E+000, -6.338235E+001,  4.082746E-001,  6.929208E+000,  3.201501E-001
  1.332946E+002,  1.255946E+002,  0.000000E+000, -5.289701E+001,  9.505478E-003,  6.960512E+000,  3.203647E-001
  1.441102E+002,  1.356485E+002,  0.000000E+000, -4.143606E+001, -3.591926E-001,  6.990033E+000,  3.204068E-001
  1.556070E+002,  1.463843E+002,  0.000000E+000, -2.898095E+001, -7.289396E-001,  7.018992E+000,  3.203433E-001
  1.669232E+002,  1.571325E+002,  0.000000E+000, -1.625803E+001, -1.121738E+000,  6.841624E+000,  3.201720E-001
  1.739519E+002,  1.642124E+002,  0.000000E+000, -7.156853E+000, -1.324694E+000,  6.102776E+000,  3.201112E-001
  1.750561E+002,  1.659286E+002,  0.000000E+000, -3.778075E+000, -1.147869E+000,  5.613191E+000,  3.200258E-001
  1.753828E+002,  1.668472E+002,  0.000000E+000, -9.938484E-001, -8.875852E-001,  5.356172E+000,  3.203876E-001
  1.753104E+002,  1.673223E+002,  0.000000E+000,  1.721542E+000, -5.873506E-001,  5.199435E+000,  3.201705E-001
  1.747895E+002,  1.673600E+002,  0.000000E+000,  4.543498E+000, -2.727613E-001,  5.212826E+000,  3.200607E-001
  1.733646E+002,  1.663465E+002,  0.000000E+000,  8.195976E+000, -3.690351E-002,  5.586220E+000,  3.202021E-001
  1.657387E+002,  1.587266E+002,  0.000000E+000,  1.816350E+001, -1.645684E-001,  6.148401E+000,  3.202327E-001
  1.547046E+002,  1.475793E+002,  0.000000E+000,  3.106386E+001, -4.061550E-001,  6.071433E+000,  3.202604E-001
  1.438535E+002,  1.365715E+002,  0.000000E+000,  4.337705E+001, -6.412809E-001,  5.890550E+000,  3.203848E-001
  1.337194E+002,  1.261810E+002,  0.000000E+000,  5.466945E+001, -8.868916E-001,  5.735604E+000,  3.204061E-001
  1.243298E+002,  1.164836E+002,  0.000000E+000,  6.498987E+001, -1.119518E+000,  5.604463E+000,  3.201901E-001
  1.156582E+002,  1.074607E+002,  0.000000E+000,  7.441130E+001, -1.380888E+000,  5.498338E+000,  3.202812E-001
  1.076807E+002,  9.909182E+001,  0.000000E+000,  8.298187E+001, -1.689104E+000,  5.437737E+000,  3.200450E-001
  1.065199E+002,  1.109525E+002,  0.000000E+000, -7.733315E+001,  6.892784E-001,  5.539530E+000,  3.204783E-001
  1.148051E+002,  1.193123E+002,  0.000000E+000, -6.872980E+001,  3.274771E-001,  5.463399E+000,  3.204192E-001
  1.237595E+002,  1.282576E+002,  0.000000E+000, -5.933368E+001, -3.761215E-002,  5.392187E+000,  3.200030E-001
  1.334238E+002,  1.379083E+002,  0.000000E+000, -4.909825E+001, -3.834420E-001,  5.334549E+000,  3.203177E-001
  1.438253E+002,  1.482388E+002,  0.000000E+000, -3.792809E+001, -6.805573E-001,  5.308009E+000,  3.204589E-001
  1.548199E+002,  1.591552E+002,  0.000000E+000, -2.588902E+001, -9.739570E-001,  5.270783E+000,  3.200401E-001
  1.653019E+002,  1.696003E+002,  0.000000E+000, -1.398549E+001, -1.305704E+000,  4.943317E+000,  3.203116E-001
  1.708942E+002,  1.755245E+002,  0.000000E+000, -6.379566E+000, -1.388228E+000,  4.165617E+000,  3.203981E-001
  1.718617E+002,  1.770004E+002,  0.000000E+000, -3.330864E+000, -1.113314E+000,  3.707520E+000,  3.204479E-001
  1.721513E+002,  1.778482E+002,  0.000000E+000, -7.036362E-001, -7.582777E-001,  3.483787E+000,  3.204943E-001
  1.720376E+002,  1.782787E+002,  0.000000E+000,  1.896129E+000, -3.724618E-001,  3.324876E+000,  3.204410E-001
  1.715216E+002,  1.782744E+002,  0.000000E+000,  4.554197E+000, -3.181717E-003,  3.342638E+000,  3.202603E-001
  1.703846E+002,  1.776129E+002,  0.000000E+000,  7.679001E+000,  2.915125E-001,  3.667885E+000,  3.205395E-001
  1.644288E+002,  1.714311E+002,  0.000000E+000,  1.573722E+001,  2.860938E-001,  4.318624E+000,  3.200342E-001
  1.542427E+002,  1.607035E+002,  0.000000E+000,  2.771908E+001,  6.685962E-002,  4.397053E+000,  3.201658E-001
  1.438370E+002,  1.495514E+002,  0.000000E+000,  3.961300E+001, -1.583096E-001,  4.309178E+000,  3.201187E-001
  1.341053E+002,  1.389857E+002,  0.000000E+000,  5.057448E+001, -3.818864E-001,  4.248437E+000,  3.200332E-001
  1.250813E+002,  1.290733E+002,  0.000000E+000,  6.064557E+001, -6.119974E-001,  4.224345E+000,  3.202690E-001
  1.167051E+002,  1.197550E+002,  0.000000E+000,  6.988367E+001, -8.584693E-001,  4.229795E+000,  3.203112E-001
  1.089847E+002,  1.110790E+002,  0.000000E+000,  7.834432E+001, -1.137095E+000,  4.275293E+000,  3.204541E-001
  1.075964E+002,  1.214889E+002,  0.000000E+000, -7.307285E+001,  2.746852E-001,  4.381901E+000,  3.203737E-001
  1.155723E+002,  1.300217E+002,  0.000000E+000, -6.460291E+001, -4.547455E-002,  4.230088E+000,  3.200430E-001
  1.241617E+002,  1.391830E+002,  0.000000E+000, -5.540007E+001, -3.466547E-001,  4.092923E+000,  3.203819E-001
  1.334116E+002,  1.489781E+002,  0.000000E+000, -4.539561E+001, -6.283520E-001,  3.969110E+000,  3.204222E-001
  1.433528E+002,  1.594146E+002,  0.000000E+000, -3.457542E+001, -8.990913E-001,  3.847235E+000,  3.201582E-001
  1.538080E+002,  1.702275E+002,  0.000000E+000, -2.305637E+001, -1.165745E+000,  3.715080E+000,  3.201440E-001
  1.634089E+002,  1.801565E+002,  0.000000E+000, -1.202102E+001, -1.416916E+000,  3.283684E+000,  3.200030E-001
  1.677350E+002,  1.850008E+002,  0.000000E+000, -5.789467E+000, -1.382255E+000,  2.525100E+000,  3.205387E-001
  1.686189E+002,  1.864199E+002,  0.000000E+000, -2.940804E+000, -1.054531E+000,  2.108647E+000,  3.205112E-001
  1.688894E+002,  1.872855E+002,  0.000000E+000, -4.182696E-001, -6.380607E-001,  1.890343E+000,  3.200925E-001
  1.687753E+002,  1.876926E+002,  0.000000E+000,  2.048570E+000, -2.205728E-001,  1.750247E+000,  3.200530E-001
  1.682746E+002,  1.876600E+002,  0.000000E+000,  4.563522E+000,  1.923299E-001,  1.771186E+000,  3.203457E-001
  1.672313E+002,  1.869193E+002,  0.000000E+000,  7.386919E+000,  5.319516E-001,  2.030692E+000,  3.203860E-001
  1.628394E+002,  1.822743E+002,  0.000000E+000,  1.365777E+001,  6.189171E-001,  2.691362E+000,  3.204088E-001
  1.535851E+002,  1.721091E+002,  0.000000E+000,  2.466875E+001,  4.390015E-001,  2.958369E+000,  3.203208E-001
  1.437250E+002,  1.610459E+002,  0.000000E+000,  3.603396E+001,  2.341463E-001,  2.992162E+000,  3.204534E-001
  1.343835E+002,  1.503845E+002,  0.000000E+000,  4.665835E+001,  2.297959E-002,  3.020636E+000,  3.202626E-001
  1.256984E+002,  1.403493E+002,  0.000000E+000,  5.646749E+001, -2.028677E-001,  3.094792E+000,  3.204266E-001
  1.176479E+002,  1.309451E+002,  0.000000E+000,  6.549703E+001, -4.441303E-001,  3.191052E+000,  3.202434E-001
  1.102141E+002,  1.221077E+002,  0.000000E+000,  7.380538E+001, -6.945146E-001,  3.309502E+000,  3.201689E-001
  1.085029E+002,  1.311696E+002,  0.000000E+000, -6.891686E+001, -3.870660E-002,  3.401308E+000,  3.200213E-001
  1.161748E+002,  1.398228E+002,  0.000000E+000, -6.061129E+001, -3.192161E-001,  3.201447E+000,  3.205051E-001
  1.244278E+002,  1.490182E+002,  0.000000E+000, -5.159292E+001, -5.861881E-001,  3.004631E+000,  3.200465E-001
  1.332912E+002,  1.588355E+002,  0.000000E+000, -4.186876E+001, -8.455127E-001,  2.824559E+000,  3.203211E-001
  1.427873E+002,  1.691987E+002,  0.000000E+000, -3.141508E+001, -1.086334E+000,  2.652860E+000,  3.204263E-001
  1.526139E+002,  1.797737E+002,  0.000000E+000, -2.047393E+001, -1.318726E+000,  2.438413E+000,  3.204997E-001
  1.613099E+002,  1.891448E+002,  0.000000E+000, -1.032410E+001, -1.515770E+000,  1.907226E+000,  3.200640E-001
  1.645985E+002,  1.930069E+002,  0.000000E+000, -5.269303E+000, -1.358141E+000,  1.240074E+000,  3.200738E-001
  1.654308E+002,  1.944588E+002,  0.000000E+000, -2.564837E+000, -9.841097E-001,  8.658226E-001,  3.204733E-001
  1.657099E+002,  1.953792E+002,  0.000000E+000, -1.476057E-001, -5.758675E-001,  6.221996E-001,  3.201127E-001
  1.655919E+002,  1.957706E+002,  0.000000E+000,  2.173273E+000, -1.439900E-001,  4.956874E-001,  3.200829E-001
  1.651048E+002,  1.956223E+002,  0.000000E+000,  4.533051E+000,  2.944223E-001,  5.191858E-001,  3.203732E-001
  1.641476E+002,  1.947492E+002,  0.000000E+000,  7.120070E+000,  6.423973E-001,  7.569317E-001,  3.201639E-001
  1.609995E+002,  1.913082E+002,  0.000000E+000,  1.194843E+001,  8.163253E-001,  1.360438E+000,  3.202171E-001
  1.527465E+002,  1.819189E+002,  0.000000E+000,  2.191012E+001,  7.041457E-001,  1.776838E+000,  3.201090E-001
  1.434834E+002,  1.711180E+002,  0.000000E+000,  3.267459E+001,  5.429538E-001,  1.925545E+000,  3.202071E-001
  1.345692E+002,  1.604994E+002,  0.000000E+000,  4.293841E+001,  3.504558E-001,  2.059872E+000,  3.202918E-001
  1.262403E+002,  1.504467E+002,  0.000000E+000,  5.248006E+001,  1.478873E-001,  2.209515E+000,  3.202210E-001
  1.185028E+002,  1.409801E+002,  0.000000E+000,  6.130881E+001, -7.502201E-002,  2.373812E+000,  3.204102E-001
  1.113416E+002,  1.320865E+002,  0.000000E+000,  6.944390E+001, -3.148300E-001,  2.547893E+000,  3.201194E-001
