 S11, S22, S33, S12, S23, S31, wp
 -4.107000E+001, -1.802573E+002,  0.000000E+000, -1.090350E+002,  5.489505E+000, -8.187485E+000,  5.007090E-001
 -4.401289E+001, -1.907629E+002,  0.000000E+000, -1.009008E+002,  4.065338E+000, -7.576617E+000,  5.002312E-001
 -5.064380E+001, -2.038698E+002,  0.000000E+000, -8.903150E+001,  4.492847E+000, -7.735065E+000,  5.003651E-001
 -5.821638E+001, -2.180552E+002,  0.000000E+000, -7.577193E+001,  5.249688E+000, -8.043513E+000,  5.004828E-001
 -6.631495E+001, -2.333414E+002,  0.000000E+000, -6.137290E+001,  6.068249E+000, -8.359082E+000,  5.001260E-001
 -7.511072E+001, -2.497995E+002,  0.000000E+000, -4.570667E+001,  6.908349E+000, -8.625883E+000,  5.004818E-001
 -8.442630E+001, -2.673440E+002,  0.000000E+000, -2.872813E+001,  7.856360E+000, -8.940187E+000,  5.001961E-001
 -9.434744E+001, -2.860661E+002,  0.000000E+000, -1.037135E+001,  8.829364E+000, -9.315271E+000,  5.005462E-001
 -1.049845E+002, -3.058902E+002,  0.000000E+000,  9.453733E+000,  9.840931E+000, -9.741771E+000,  5.000702E-001
 -1.163351E+002, -3.258963E+002,  0.000000E+000,  3.054358E+001,  1.087012E+001, -1.020818E+001,  5.005548E-001
 -1.293418E+002, -3.402972E+002,  0.000000E+000,  4.953727E+001,  1.152421E+001, -1.154643E+001,  5.005434E-001
 -1.438380E+002, -3.404136E+002,  0.000000E+000,  5.803153E+001,  1.049792E+001, -1.422366E+001,  5.000501E-001
 -1.570544E+002, -3.393345E+002,  0.000000E+000,  6.586985E+001,  9.533543E+000, -1.652621E+001,  5.009928E-001
 -1.668809E+002, -3.366846E+002,  0.000000E+000,  7.258931E+001,  9.966269E+000, -1.699323E+001,  5.006685E-001
 -1.750756E+002, -3.337620E+002,  0.000000E+000,  7.831679E+001,  1.080112E+001, -1.696331E+001,  5.003258E-001
 -1.817365E+002, -3.307743E+002,  0.000000E+000,  8.318097E+001,  1.203892E+001, -1.636247E+001,  5.005210E-001
 -1.872920E+002, -3.278097E+002,  0.000000E+000,  8.745553E+001,  1.338917E+001, -1.547714E+001,  5.001851E-001
 -1.916081E+002, -3.237807E+002,  0.000000E+000,  9.139934E+001,  1.450860E+001, -1.457872E+001,  5.000999E-001
 -1.945237E+002, -3.187538E+002,  0.000000E+000,  9.483011E+001,  1.513898E+001, -1.375879E+001,  5.007059E-001
 -1.957365E+002, -3.121605E+002,  0.000000E+000,  9.801115E+001,  1.572436E+001, -1.288355E+001,  5.004423E-001
 -1.578748E+001, -1.855355E+002,  0.000000E+000, -1.103998E+002,  7.373495E+000, -8.727863E+000,  5.004829E-001
 -1.574655E+001, -1.952184E+002,  0.000000E+000, -1.035342E+002,  5.467917E+000, -7.941071E+000,  5.004250E-001
 -1.827105E+001, -2.072860E+002,  0.000000E+000, -9.381927E+001,  4.348935E+000, -7.435975E+000,  5.005128E-001
 -2.462886E+001, -2.219806E+002,  0.000000E+000, -8.038402E+001,  5.070817E+000, -7.722503E+000,  5.001577E-001
 -3.152796E+001, -2.379032E+002,  0.000000E+000, -6.563042E+001,  5.891720E+000, -8.088635E+000,  5.005542E-001
 -3.887722E+001, -2.550052E+002,  0.000000E+000, -4.959462E+001,  6.883469E+000, -8.541475E+000,  5.006290E-001
 -4.692984E+001, -2.733173E+002,  0.000000E+000, -3.215935E+001,  7.850637E+000, -8.927306E+000,  5.005354E-001
 -5.557585E+001, -2.927908E+002,  0.000000E+000, -1.325655E+001,  8.767262E+000, -9.322975E+000,  5.001857E-001
 -6.488924E+001, -3.136087E+002,  0.000000E+000,  7.171620E+000,  9.777967E+000, -9.759556E+000,  5.003853E-001
 -7.620956E+001, -3.332729E+002,  0.000000E+000,  2.786405E+001,  1.114091E+001, -1.099325E+001,  5.001016E-001
 -9.203657E+001, -3.408466E+002,  0.000000E+000,  4.162131E+001,  1.178753E+001, -1.380806E+001,  5.002690E-001
 -1.069452E+002, -3.405861E+002,  0.000000E+000,  5.002139E+001,  1.032691E+001, -1.569118E+001,  5.000553E-001
 -1.211238E+002, -3.393202E+002,  0.000000E+000,  5.800003E+001,  9.024296E+000, -1.739467E+001,  5.008118E-001
 -1.345911E+002, -3.375178E+002,  0.000000E+000,  6.597988E+001,  7.951321E+000, -1.913351E+001,  5.009670E-001
 -1.461425E+002, -3.351858E+002,  0.000000E+000,  7.290608E+001,  7.670849E+000, -2.022460E+001,  5.006891E-001
 -1.549616E+002, -3.322400E+002,  0.000000E+000,  7.862292E+001,  8.371341E+000, -2.010913E+001,  5.000239E-001
 -1.621870E+002, -3.290083E+002,  0.000000E+000,  8.346517E+001,  9.351428E+000, -1.951558E+001,  5.009371E-001
 -1.674218E+002, -3.242616E+002,  0.000000E+000,  8.763965E+001,  1.039582E+001, -1.852915E+001,  5.006547E-001
 -1.712972E+002, -3.185332E+002,  0.000000E+000,  9.149869E+001,  1.125950E+001, -1.750221E+001,  5.009042E-001
 -1.701118E+002, -3.064457E+002,  0.000000E+000,  9.522060E+001,  1.224819E+001, -1.628653E+001,  5.005235E-001
 -2.225466E+001, -1.764414E+002,  0.000000E+000, -1.152644E+002,  9.459127E+000, -9.607958E+000,  5.003591E-001
 -1.651152E+002, -2.836373E+002,  0.000000E+000,  1.004395E+002,  1.355340E+001, -1.434791E+001,  5.002228E-001
 -3.049712E+001, -1.673117E+002,  0.000000E+000, -1.192843E+002,  1.154282E+001, -1.063011E+001,  5.002898E-001
 -1.590262E+002, -2.591005E+002,  0.000000E+000,  1.057164E+002,  1.512939E+001, -1.217674E+001,  5.004312E-001
 -3.960981E+001, -1.573019E+002,  0.000000E+000, -1.234261E+002,  1.347656E+001, -1.179417E+001,  5.002374E-001
 -1.516659E+002, -2.327179E+002,  0.000000E+000,  1.109788E+002,  1.669932E+001, -9.749144E+000,  5.004780E-001
  9.385491E+000, -1.918421E+002,  0.000000E+000, -1.109170E+002,  9.615916E+000, -9.460925E+000,  5.003839E-001
  1.264017E+001, -2.006710E+002,  0.000000E+000, -1.052368E+002,  7.239923E+000, -8.557021E+000,  5.003519E-001
  1.353586E+001, -2.121711E+002,  0.000000E+000, -9.692662E+001,  5.388655E+000, -7.818786E+000,  5.003767E-001
  1.115549E+001, -2.259337E+002,  0.000000E+000, -8.509366E+001,  4.861810E+000, -7.641896E+000,  5.004558E-001
  5.590614E+000, -2.424108E+002,  0.000000E+000, -6.998570E+001,  5.726002E+000, -8.076948E+000,  5.002581E-001
 -5.291219E-001, -2.602267E+002,  0.000000E+000, -5.356725E+001,  6.636937E+000, -8.555506E+000,  5.000456E-001
 -7.021212E+000, -2.793978E+002,  0.000000E+000, -3.577483E+001,  7.641480E+000, -9.057974E+000,  5.003810E-001
 -1.601681E+001, -2.988948E+002,  0.000000E+000, -1.679558E+001,  8.944433E+000, -1.019207E+001,  5.003137E-001
 -2.895851E+001, -3.179152E+002,  0.000000E+000,  2.799750E+000,  1.109564E+001, -1.253823E+001,  5.003932E-001
 -4.387946E+001, -3.336545E+002,  0.000000E+000,  2.133634E+001,  1.322042E+001, -1.553802E+001,  5.004920E-001
 -5.989770E+001, -3.410962E+002,  0.000000E+000,  3.436098E+001,  1.404380E+001, -1.777581E+001,  5.003040E-001
 -7.424613E+001, -3.411506E+002,  0.000000E+000,  4.291764E+001,  1.225248E+001, -1.870501E+001,  5.008698E-001
 -8.784507E+001, -3.394102E+002,  0.000000E+000,  5.072723E+001,  1.004118E+001, -1.955696E+001,  5.006589E-001
 -1.010578E+002, -3.373864E+002,  0.000000E+000,  5.853808E+001,  8.202468E+000, -2.057157E+001,  5.010255E-001
 -1.137697E+002, -3.353423E+002,  0.000000E+000,  6.607407E+001,  6.629373E+000, -2.158859E+001,  5.003151E-001
 -1.258567E+002, -3.331973E+002,  0.000000E+000,  7.302378E+001,  5.390357E+000, -2.284126E+001,  5.004958E-001
 -1.353163E+002, -3.295320E+002,  0.000000E+000,  7.869431E+001,  5.548522E+000, -2.291920E+001,  5.002664E-001
 -1.420589E+002, -3.241668E+002,  0.000000E+000,  8.354635E+001,  6.185606E+000, -2.228531E+001,  5.007748E-001
 -1.458029E+002, -3.160012E+002,  0.000000E+000,  8.782314E+001,  7.363943E+000, -2.112395E+001,  5.001419E-001
 -1.404922E+002, -2.950870E+002,  0.000000E+000,  9.281432E+001,  8.589365E+000, -1.958379E+001,  5.001918E-001
  2.975880E+000, -1.836773E+002,  0.000000E+000, -1.149693E+002,  1.176863E+001, -1.031018E+001,  5.004703E-001
 -1.345571E+002, -2.718723E+002,  0.000000E+000,  9.807079E+001,  9.890447E+000, -1.777898E+001,  5.005076E-001
 -4.228064E+000, -1.747296E+002,  0.000000E+000, -1.191089E+002,  1.397731E+001, -1.131173E+001,  5.001326E-001
 -1.278593E+002, -2.468019E+002,  0.000000E+000,  1.035858E+002,  1.115604E+001, -1.582929E+001,  5.002917E-001
 -1.216668E+001, -1.649446E+002,  0.000000E+000, -1.232553E+002,  1.598947E+001, -1.255832E+001,  5.006157E-001
 -1.200596E+002, -2.199168E+002,  0.000000E+000,  1.091356E+002,  1.268598E+001, -1.359052E+001,  5.003544E-001
 -2.122266E+001, -1.543091E+002,  0.000000E+000, -1.273163E+002,  1.767330E+001, -1.397529E+001,  5.000889E-001
 -1.108924E+002, -1.910652E+002,  0.000000E+000,  1.146019E+002,  1.427448E+001, -1.105876E+001,  5.003595E-001
 -3.143542E+001, -1.430400E+002,  0.000000E+000, -1.310824E+002,  1.866075E+001, -1.569134E+001,  5.005257E-001
 -1.006598E+002, -1.601762E+002,  0.000000E+000,  1.201338E+002,  1.580423E+001, -8.209522E+000,  5.006404E-001
 -4.093216E+001, -1.289595E+002,  0.000000E+000, -1.333908E+002,  1.630457E+001, -1.773457E+001,  5.004998E-001
 -8.810510E+001, -1.260675E+002,  0.000000E+000,  1.254100E+002,  1.721533E+001, -4.982776E+000,  5.003366E-001
 -3.508077E+001, -9.524980E+001,  0.000000E+000, -1.347445E+002,  1.013301E+001, -1.752873E+001,  5.006288E-001
 -7.371646E+001, -9.069881E+001,  0.000000E+000,  1.296992E+002,  1.669078E+001, -9.726847E-001,  5.007407E-001
  3.449010E+001, -1.986871E+002,  0.000000E+000, -1.104648E+002,  1.175495E+001, -1.032256E+001,  5.006481E-001
  4.057225E+001, -2.070549E+002,  0.000000E+000, -1.056924E+002,  9.484280E+000, -9.507330E+000,  5.001541E-001
  4.525043E+001, -2.177177E+002,  0.000000E+000, -9.871739E+001,  7.121762E+000, -8.694842E+000,  5.001238E-001
  4.738299E+001, -2.304503E+002,  0.000000E+000, -8.880779E+001,  5.318259E+000, -8.036683E+000,  5.006655E-001
  4.451799E+001, -2.468055E+002,  0.000000E+000, -7.447963E+001,  5.384739E+000, -8.126812E+000,  5.005830E-001
  3.764633E+001, -2.644823E+002,  0.000000E+000, -5.803317E+001,  6.682334E+000, -9.328685E+000,  5.002511E-001
  2.657917E+001, -2.820567E+002,  0.000000E+000, -4.092367E+001,  8.967315E+000, -1.188407E+001,  5.007289E-001
  1.394019E+001, -3.001420E+002,  0.000000E+000, -2.282771E+001,  1.144666E+001, -1.477514E+001,  5.001083E-001
  4.589542E-003, -3.185351E+002,  0.000000E+000, -3.641480E+000,  1.407843E+001, -1.779481E+001,  5.001405E-001
 -1.637714E+001, -3.324429E+002,  0.000000E+000,  1.380680E+001,  1.639027E+001, -2.040379E+001,  5.005177E-001
 -3.251387E+001, -3.399271E+002,  0.000000E+000,  2.747140E+001,  1.703604E+001, -2.103321E+001,  5.007733E-001
 -4.562936E+001, -3.414764E+002,  0.000000E+000,  3.668975E+001,  1.523165E+001, -2.183949E+001,  5.003136E-001
 -5.749660E+001, -3.395652E+002,  0.000000E+000,  4.420929E+001,  1.225701E+001, -2.235645E+001,  5.010684E-001
 -6.962388E+001, -3.372220E+002,  0.000000E+000,  5.162253E+001,  9.557292E+000, -2.256286E+001,  5.009520E-001
 -8.166321E+001, -3.347735E+002,  0.000000E+000,  5.895266E+001,  7.013379E+000, -2.289322E+001,  5.004374E-001
 -9.370800E+001, -3.322062E+002,  0.000000E+000,  6.582993E+001,  4.868473E+000, -2.353412E+001,  5.001501E-001
 -1.049896E+002, -3.283058E+002,  0.000000E+000,  7.250422E+001,  3.255776E+000, -2.443736E+001,  5.003564E-001
 -1.146840E+002, -3.228804E+002,  0.000000E+000,  7.870266E+001,  2.589771E+000, -2.509742E+001,  5.007602E-001
 -1.158246E+002, -3.067913E+002,  0.000000E+000,  8.437049E+001,  3.593583E+000, -2.388718E+001,  5.000961E-001
 -1.109849E+002, -2.833776E+002,  0.000000E+000,  9.021801E+001,  4.759486E+000, -2.238578E+001,  5.002898E-001
  2.903083E+001, -1.908814E+002,  0.000000E+000, -1.144626E+002,  1.404870E+001, -1.122436E+001,  5.003222E-001
 -1.041600E+002, -2.598926E+002,  0.000000E+000,  9.549626E+001,  5.921055E+000, -2.086551E+001,  5.000317E-001
  2.294077E+001, -1.822649E+002,  0.000000E+000, -1.187160E+002,  1.641371E+001, -1.222889E+001,  5.004569E-001
 -9.662524E+001, -2.345924E+002,  0.000000E+000,  1.010229E+002,  7.246662E+000, -1.919173E+001,  5.002291E-001
  1.607635E+001, -1.727088E+002,  0.000000E+000, -1.229359E+002,  1.849560E+001, -1.341807E+001,  5.000843E-001
 -8.817937E+001, -2.072552E+002,  0.000000E+000,  1.067523E+002,  8.501192E+000, -1.736703E+001,  5.002121E-001
  8.526884E+000, -1.621655E+002,  0.000000E+000, -1.269975E+002,  2.033542E+001, -1.488457E+001,  5.002129E-001
 -7.839982E+001, -1.776896E+002,  0.000000E+000,  1.124475E+002,  1.008033E+001, -1.501365E+001,  5.003099E-001
  8.562375E-002, -1.502965E+002,  0.000000E+000, -1.304791E+002,  2.080520E+001, -1.660932E+001,  5.000970E-001
 -6.640081E+001, -1.452751E+002,  0.000000E+000,  1.181072E+002,  1.181706E+001, -1.234430E+001,  5.004645E-001
  2.287898E+000, -1.216695E+002,  0.000000E+000, -1.324376E+002,  1.504478E+001, -1.747259E+001,  5.006127E-001
 -5.202552E+001, -1.096660E+002,  0.000000E+000,  1.235201E+002,  1.321030E+001, -9.301070E+000,  5.005588E-001
  1.070656E+001, -8.306589E+001,  0.000000E+000, -1.339418E+002,  8.287714E+000, -1.779544E+001,  5.000200E-001
 -3.666998E+001, -7.374302E+001,  0.000000E+000,  1.280284E+002,  1.321363E+001, -5.668168E+000,  5.007834E-001
  1.985785E+001, -4.485048E+001,  0.000000E+000, -1.349212E+002,  1.799052E+000, -1.733751E+001,  5.004292E-001
 -2.108518E+001, -4.057709E+001,  0.000000E+000,  1.307984E+002,  1.014471E+001, -8.234645E-001,  5.006386E-001
  3.153959E+001, -9.005660E+000,  0.000000E+000, -1.347229E+002, -3.676215E+000, -1.433398E+001,  5.001924E-001
 -6.574388E+000, -8.013571E+000,  0.000000E+000,  1.325585E+002,  5.341439E+000,  4.742889E+000,  5.007699E-001
  4.518305E+001,  2.467381E+001,  0.000000E+000, -1.336529E+002, -8.589971E+000, -9.613287E+000,  5.001015E-001
  8.147027E+000,  2.515982E+001,  0.000000E+000,  1.338702E+002,  5.227686E-001,  1.014453E+001,  5.007283E-001
  5.945992E+001,  5.703190E+001,  0.000000E+000, -1.321166E+002, -1.328190E+001, -4.191276E+000,  5.004571E-001
  2.235282E+001,  5.928658E+001,  0.000000E+000,  1.346662E+002, -4.555515E+000,  1.451536E+001,  5.004429E-001
  5.828880E+001, -2.047107E+002,  0.000000E+000, -1.091579E+002,  1.343277E+001, -1.096486E+001,  5.006770E-001
  6.578736E+001, -2.126354E+002,  0.000000E+000, -1.047799E+002,  1.128036E+001, -1.034821E+001,  5.008221E-001
  7.200114E+001, -2.227072E+002,  0.000000E+000, -9.852294E+001,  8.614403E+000, -9.536946E+000,  5.001457E-001
  7.540000E+001, -2.344266E+002,  0.000000E+000, -9.007470E+001,  6.399911E+000, -9.068640E+000,  5.007474E-001
  7.040180E+001, -2.468478E+002,  0.000000E+000, -7.901279E+001,  6.384673E+000, -1.084335E+001,  5.008737E-001
  5.997667E+001, -2.630820E+002,  0.000000E+000, -6.347757E+001,  8.777459E+000, -1.358414E+001,  5.005281E-001
  4.849553E+001, -2.803040E+002,  0.000000E+000, -4.673878E+001,  1.130506E+001, -1.644378E+001,  5.006634E-001
  3.579863E+001, -2.982578E+002,  0.000000E+000, -2.900030E+001,  1.421399E+001, -1.944448E+001,  5.005836E-001
  2.179411E+001, -3.166018E+002,  0.000000E+000, -1.046502E+001,  1.722901E+001, -2.261837E+001,  5.002598E-001
  6.477127E+000, -3.292433E+002,  0.000000E+000,  5.665060E+000,  1.921569E+001, -2.410453E+001,  5.008897E-001
 -1.008769E+001, -3.358512E+002,  0.000000E+000,  1.982305E+001,  1.967927E+001, -2.219688E+001,  5.003312E-001
 -2.500719E+001, -3.383283E+002,  0.000000E+000,  3.097491E+001,  1.840680E+001, -2.053480E+001,  5.007623E-001
 -3.408224E+001, -3.374437E+002,  0.000000E+000,  3.871778E+001,  1.506529E+001, -2.162597E+001,  5.002480E-001
 -4.223647E+001, -3.359662E+002,  0.000000E+000,  4.537942E+001,  1.151945E+001, -2.325219E+001,  5.001768E-001
 -5.244807E+001, -3.340629E+002,  0.000000E+000,  5.239348E+001,  8.577017E+000, -2.454988E+001,  5.007088E-001
 -6.347316E+001, -3.303218E+002,  0.000000E+000,  5.917572E+001,  5.604850E+000, -2.486397E+001,  5.008019E-001
 -7.331780E+001, -3.251706E+002,  0.000000E+000,  6.566239E+001,  2.970818E+000, -2.501167E+001,  5.002910E-001
 -8.084487E+001, -3.148625E+002,  0.000000E+000,  7.239409E+001,  1.530848E+000, -2.506286E+001,  5.001435E-001
 -8.130769E+001, -2.923872E+002,  0.000000E+000,  8.029497E+001,  1.182703E+000, -2.490547E+001,  5.002056E-001
 -8.077186E+001, -2.711706E+002,  0.000000E+000,  8.705535E+001,  1.436802E+000, -2.449002E+001,  5.001005E-001
  5.378571E+001, -1.973138E+002,  0.000000E+000, -1.130674E+002,  1.554356E+001, -1.167086E+001,  5.003153E-001
 -7.364087E+001, -2.476243E+002,  0.000000E+000,  9.241593E+001,  2.066212E+000, -2.340999E+001,  5.002035E-001
  4.875506E+001, -1.889997E+002,  0.000000E+000, -1.173112E+002,  1.782347E+001, -1.248162E+001,  5.002071E-001
 -6.553224E+001, -2.220522E+002,  0.000000E+000,  9.803125E+001,  2.931886E+000, -2.206496E+001,  5.000382E-001
  4.333634E+001, -1.795991E+002,  0.000000E+000, -1.217118E+002,  2.023094E+001, -1.363402E+001,  5.001471E-001
 -5.633886E+001, -1.944672E+002,  0.000000E+000,  1.038221E+002,  4.144258E+000, -2.045582E+001,  5.003561E-001
  3.651961E+001, -1.694154E+002,  0.000000E+000, -1.256610E+002,  2.201931E+001, -1.505364E+001,  5.000597E-001
 -4.539190E+001, -1.637687E+002,  0.000000E+000,  1.098917E+002,  5.594614E+000, -1.853641E+001,  5.002547E-001
  3.870709E+001, -1.467724E+002,  0.000000E+000, -1.292092E+002,  1.971771E+001, -1.670271E+001,  5.005653E-001
 -3.167257E+001, -1.295208E+002,  0.000000E+000,  1.157470E+002,  7.418625E+000, -1.613652E+001,  5.006852E-001
  4.723411E+001, -1.100075E+002,  0.000000E+000, -1.310208E+002,  1.331673E+001, -1.694280E+001,  5.000529E-001
 -1.652767E+001, -9.345261E+001,  0.000000E+000,  1.212712E+002,  9.015023E+000, -1.350622E+001,  5.000742E-001
  5.574285E+001, -7.213704E+001,  0.000000E+000, -1.324577E+002,  6.709995E+000, -1.721238E+001,  5.005663E-001
 -2.771299E-001, -5.699000E+001,  0.000000E+000,  1.260228E+002,  9.494362E+000, -1.016559E+001,  5.001817E-001
  6.408792E+001, -3.372665E+001,  0.000000E+000, -1.337930E+002,  5.993102E-002, -1.747538E+001,  5.002242E-001
  1.627434E+001, -2.307258E+001,  0.000000E+000,  1.291465E+002,  7.046568E+000, -5.639408E+000,  5.000208E-001
  7.315705E+001,  4.215641E+000,  0.000000E+000, -1.346223E+002, -6.306915E+000, -1.684566E+001,  5.000733E-001
  3.236421E+001,  8.309605E+000,  0.000000E+000,  1.310257E+002,  2.270961E+000, -2.844722E-001,  5.005066E-001
  8.447925E+001,  3.993454E+001,  0.000000E+000, -1.342566E+002, -1.169680E+001, -1.367092E+001,  5.001902E-001
  4.756008E+001,  4.147917E+001,  0.000000E+000,  1.326077E+002, -2.628660E+000,  5.189879E+000,  5.001454E-001
  9.765589E+001,  7.323004E+001,  0.000000E+000, -1.330400E+002, -1.656063E+001, -8.855029E+000,  5.004733E-001
  6.278942E+001,  7.523301E+001,  0.000000E+000,  1.336431E+002, -7.586683E+000,  1.048629E+001,  5.004256E-001
  1.112913E+002,  1.063688E+002,  0.000000E+000, -1.308138E+002, -2.035397E+001, -3.743343E+000,  5.004073E-001
  7.669686E+001,  1.092610E+002,  0.000000E+000,  1.340793E+002, -1.283040E+001,  1.451368E+001,  5.005928E-001
  1.233610E+002,  1.413407E+002,  0.000000E+000, -1.268070E+002, -2.137939E+001,  6.249229E-001,  5.005899E-001
  7.242655E+001,  1.246872E+002,  0.000000E+000,  1.332891E+002, -1.510966E+001,  1.594551E+001,  5.006111E-001
  1.335903E+002,  1.734365E+002,  0.000000E+000, -1.216730E+002, -2.013862E+001,  4.004096E+000,  5.000168E-001
  6.093008E+001,  1.352017E+002,  0.000000E+000,  1.313011E+002, -1.615187E+001,  1.482435E+001,  5.005032E-001
  1.430583E+002,  2.040111E+002,  0.000000E+000, -1.162442E+002, -1.851930E+001,  7.078011E+000,  5.001603E-001
  4.960716E+001,  1.466665E+002,  0.000000E+000,  1.274242E+002, -1.504130E+001,  1.319686E+001,  5.005431E-001
  7.777313E+001, -2.089505E+002,  0.000000E+000, -1.069171E+002,  1.365636E+001, -1.080488E+001,  5.003240E-001
  8.544505E+001, -2.164165E+002,  0.000000E+000, -1.026733E+002,  1.152304E+001, -1.002481E+001,  5.006994E-001
  9.065953E+001, -2.248216E+002,  0.000000E+000, -9.728699E+001,  9.210592E+000, -9.703406E+000,  5.000909E-001
  9.034086E+001, -2.329172E+002,  0.000000E+000, -9.156427E+001,  7.611847E+000, -1.124654E+001,  5.006749E-001
  8.530523E+001, -2.440846E+002,  0.000000E+000, -8.230378E+001,  7.462590E+000, -1.355214E+001,  5.000452E-001
  7.635054E+001, -2.597644E+002,  0.000000E+000, -6.796321E+001,  9.872875E+000, -1.645620E+001,  5.006408E-001
  6.543764E+001, -2.771052E+002,  0.000000E+000, -5.208337E+001,  1.302109E+001, -1.969472E+001,  5.001914E-001
  5.368231E+001, -2.950787E+002,  0.000000E+000, -3.508726E+001,  1.637521E+001, -2.304281E+001,  5.000908E-001
  4.105793E+001, -3.133446E+002,  0.000000E+000, -1.723560E+001,  1.987285E+001, -2.653550E+001,  5.002183E-001
  2.611284E+001, -3.245551E+002,  0.000000E+000, -1.709662E+000,  2.139881E+001, -2.669809E+001,  5.009373E-001
  9.657587E+000, -3.303329E+002,  0.000000E+000,  1.158517E+001,  2.124506E+001, -2.380040E+001,  5.009325E-001
 -5.852001E+000, -3.339564E+002,  0.000000E+000,  2.417469E+001,  2.082198E+001, -2.079789E+001,  5.011598E-001
 -1.737478E+001, -3.342044E+002,  0.000000E+000,  3.425954E+001,  1.878338E+001, -2.012110E+001,  5.002453E-001
 -2.374461E+001, -3.321332E+002,  0.000000E+000,  4.086361E+001,  1.473267E+001, -2.146759E+001,  5.002000E-001
 -2.886046E+001, -3.286753E+002,  0.000000E+000,  4.683730E+001,  1.035009E+001, -2.311100E+001,  5.007198E-001
 -3.390942E+001, -3.234823E+002,  0.000000E+000,  5.293056E+001,  6.271475E+000, -2.476157E+001,  5.005720E-001
 -3.919505E+001, -3.135206E+002,  0.000000E+000,  5.983639E+001,  2.878570E+000, -2.481654E+001,  5.005985E-001
 -4.185550E+001, -2.958012E+002,  0.000000E+000,  6.712133E+001,  9.212068E-001, -2.380021E+001,  5.000048E-001
 -4.436907E+001, -2.759911E+002,  0.000000E+000,  7.489170E+001,  4.043172E-001, -2.373212E+001,  5.000965E-001
 -4.687426E+001, -2.568774E+002,  0.000000E+000,  8.208504E+001,  4.227334E-001, -2.380095E+001,  5.005293E-001
  7.350714E+001, -2.020696E+002,  0.000000E+000, -1.101631E+002,  1.519786E+001, -1.106183E+001,  5.008275E-001
 -3.996020E+001, -2.338243E+002,  0.000000E+000,  8.771934E+001,  2.811451E-001, -2.350371E+001,  5.001606E-001
  6.847923E+001, -1.939788E+002,  0.000000E+000, -1.136814E+002,  1.684438E+001, -1.140830E+001,  5.002994E-001
 -3.247828E+001, -2.088272E+002,  0.000000E+000,  9.381494E+001,  1.326302E-001, -2.315601E+001,  5.002480E-001
  6.257550E+001, -1.849082E+002,  0.000000E+000, -1.174526E+002,  1.868141E+001, -1.186154E+001,  5.007724E-001
 -2.348755E+001, -1.810076E+002,  0.000000E+000,  1.002287E+002,  2.776062E-001, -2.256011E+001,  5.005089E-001
  6.391285E+001, -1.644911E+002,  0.000000E+000, -1.219751E+002,  1.862770E+001, -1.200022E+001,  5.002470E-001
 -1.153177E+001, -1.490630E+002,  0.000000E+000,  1.066376E+002,  1.076871E+000, -2.127830E+001,  5.003642E-001
  7.656835E+001, -1.313465E+002,  0.000000E+000, -1.261815E+002,  1.578263E+001, -1.338118E+001,  5.003874E-001
  2.339272E+000, -1.141568E+002,  0.000000E+000,  1.128987E+002,  2.420020E+000, -1.930899E+001,  5.005766E-001
  9.015394E+001, -9.827012E+001,  0.000000E+000, -1.291841E+002,  1.136100E+001, -1.613705E+001,  5.007632E-001
  1.798870E+001, -7.772865E+001,  0.000000E+000,  1.186387E+002,  4.287468E+000, -1.689970E+001,  5.006088E-001
  9.942234E+001, -6.143805E+001,  0.000000E+000, -1.307921E+002,  5.075813E+000, -1.639340E+001,  5.001638E-001
  3.515917E+001, -4.041479E+001,  0.000000E+000,  1.238651E+002,  5.662803E+000, -1.441320E+001,  5.002290E-001
  1.080145E+002, -2.368761E+001,  0.000000E+000, -1.321161E+002, -1.481269E+000, -1.658446E+001,  5.003775E-001
  5.272452E+001, -5.688009E+000,  0.000000E+000,  1.273513E+002,  3.879316E+000, -1.035356E+001,  5.002077E-001
  1.165504E+002,  1.475046E+001,  0.000000E+000, -1.334002E+002, -8.142347E+000, -1.678905E+001,  5.006096E-001
  6.965651E+001,  2.551150E+001,  0.000000E+000,  1.292933E+002, -7.144502E-001, -5.002522E+000,  5.004399E-001
  1.255888E+002,  5.252636E+001,  0.000000E+000, -1.339492E+002, -1.445538E+001, -1.585989E+001,  5.000993E-001
  8.633329E+001,  5.786038E+001,  0.000000E+000,  1.309607E+002, -5.764434E+000,  1.580179E-001,  5.001387E-001
  1.363847E+002,  8.803474E+001,  0.000000E+000, -1.333612E+002, -1.999719E+001, -1.283304E+001,  5.001264E-001
  1.022818E+002,  9.159195E+001,  0.000000E+000,  1.321423E+002, -1.083633E+001,  5.449896E+000,  5.003156E-001
  1.479697E+002,  1.209805E+002,  0.000000E+000, -1.314751E+002, -2.413712E+001, -8.225984E+000,  5.000647E-001
  1.038785E+002,  1.100554E+002,  0.000000E+000,  1.322591E+002, -1.282825E+001,  9.455156E+000,  5.001283E-001
  1.578406E+002,  1.536333E+002,  0.000000E+000, -1.279073E+002, -2.540424E+001, -4.130908E+000,  5.005321E-001
  9.682809E+001,  1.189186E+002,  0.000000E+000,  1.317800E+002, -1.302300E+001,  1.193685E+001,  5.007565E-001
  1.664850E+002,  1.864483E+002,  0.000000E+000, -1.230830E+002, -2.439001E+001, -5.104706E-001,  5.006812E-001
  8.820887E+001,  1.280419E+002,  0.000000E+000,  1.307262E+002, -1.337302E+001,  1.326641E+001,  5.005189E-001
  1.746685E+002,  2.169249E+002,  0.000000E+000, -1.176655E+002, -2.258139E+001,  2.775344E+000,  5.003672E-001
  7.692990E+001,  1.388589E+002,  0.000000E+000,  1.275978E+002, -1.258437E+001,  1.244048E+001,  5.007748E-001
  1.825057E+002,  2.451212E+002,  0.000000E+000, -1.124967E+002, -2.091882E+001,  5.790201E+000,  5.005768E-001
  6.576740E+001,  1.499486E+002,  0.000000E+000,  1.234671E+002, -1.092949E+001,  1.111617E+001,  5.000508E-001
  1.893472E+002,  2.711729E+002,  0.000000E+000, -1.074234E+002, -1.918786E+001,  8.582663E+000,  5.003619E-001
  5.569215E+001,  1.601153E+002,  0.000000E+000,  1.194070E+002, -8.991636E+000,  9.997041E+000,  5.000552E-001
  1.950964E+002,  2.951509E+002,  0.000000E+000, -1.024403E+002, -1.768496E+001,  1.095757E+001,  5.002207E-001
  4.709111E+001,  1.699666E+002,  0.000000E+000,  1.149512E+002, -6.957781E+000,  8.995664E+000,  5.001159E-001
  9.122996E+001, -2.117366E+002,  0.000000E+000, -1.035301E+002,  1.204588E+001, -9.275485E+000,  5.002403E-001
  9.757500E+001, -2.179454E+002,  0.000000E+000, -9.985545E+001,  1.027077E+001, -9.128678E+000,  5.002534E-001
  1.000472E+002, -2.232501E+002,  0.000000E+000, -9.642257E+001,  8.775075E+000, -1.043099E+001,  5.001616E-001
  9.942664E+001, -2.295502E+002,  0.000000E+000, -9.206964E+001,  7.488393E+000, -1.268644E+001,  5.001927E-001
  9.612975E+001, -2.398567E+002,  0.000000E+000, -8.432279E+001,  7.221190E+000, -1.514668E+001,  5.004841E-001
  8.868568E+001, -2.548326E+002,  0.000000E+000, -7.164677E+001,  9.926022E+000, -1.829618E+001,  5.006269E-001
  7.938229E+001, -2.719711E+002,  0.000000E+000, -5.670683E+001,  1.357938E+001, -2.185445E+001,  5.007435E-001
  6.851651E+001, -2.902021E+002,  0.000000E+000, -4.025578E+001,  1.711630E+001, -2.548198E+001,  5.003919E-001
  5.707629E+001, -3.085222E+002,  0.000000E+000, -2.283649E+001,  2.072865E+001, -2.915940E+001,  5.002628E-001
  4.420431E+001, -3.189099E+002,  0.000000E+000, -9.019580E+000,  2.291887E+001, -2.843347E+001,  5.009627E-001
  2.789700E+001, -3.245309E+002,  0.000000E+000,  3.712031E+000,  2.252672E+001, -2.542891E+001,  5.010662E-001
  1.417791E+001, -3.261330E+002,  0.000000E+000,  1.709975E+001,  2.162897E+001, -2.185567E+001,  5.004656E-001
  9.610043E+000, -3.194639E+002,  0.000000E+000,  2.936082E+001,  1.897357E+001, -1.881765E+001,  5.008234E-001
  6.890145E+000, -3.134476E+002,  0.000000E+000,  3.699827E+001,  1.499815E+001, -1.899873E+001,  5.004369E-001
  4.398474E+000, -3.068607E+002,  0.000000E+000,  4.327366E+001,  1.045674E+001, -2.024546E+001,  5.003674E-001
  2.070456E+000, -3.000839E+002,  0.000000E+000,  4.901314E+001,  6.068027E+000, -2.174250E+001,  5.002585E-001
 -8.114912E-001, -2.909738E+002,  0.000000E+000,  5.527877E+001,  2.424428E+000, -2.281524E+001,  5.004593E-001
 -5.141580E+000, -2.767449E+002,  0.000000E+000,  6.223247E+001,  3.981182E-001, -2.240416E+001,  5.005440E-001
 -9.416663E+000, -2.595456E+002,  0.000000E+000,  6.974848E+001, -2.877315E-001, -2.231934E+001,  5.006225E-001
 -1.351634E+001, -2.421877E+002,  0.000000E+000,  7.693266E+001, -2.945492E-001, -2.261870E+001,  5.006825E-001
  8.794420E+001, -2.051783E+002,  0.000000E+000, -1.063743E+002,  1.349859E+001, -9.509399E+000,  5.000620E-001
 -5.464844E+000, -2.192299E+002,  0.000000E+000,  8.213620E+001, -4.872327E-001, -2.227108E+001,  5.003623E-001
  8.414825E+001, -1.976809E+002,  0.000000E+000, -1.095268E+002,  1.507033E+001, -9.858719E+000,  5.005970E-001
  3.546954E+000, -1.937692E+002,  0.000000E+000,  8.789129E+001, -5.590204E-001, -2.184327E+001,  5.001686E-001
  8.457574E+001, -1.825736E+002,  0.000000E+000, -1.134410E+002,  1.570044E+001, -9.745788E+000,  5.006734E-001
  1.414606E+001, -1.650098E+002,  0.000000E+000,  9.415178E+001, -6.118471E-001, -2.128749E+001,  5.001795E-001
  9.710729E+001, -1.493595E+002,  0.000000E+000, -1.183848E+002,  1.445516E+001, -9.037366E+000,  5.001765E-001
  2.609556E+001, -1.332716E+002,  0.000000E+000,  1.007971E+002, -6.350419E-001, -2.063576E+001,  5.000151E-001
  1.110429E+002, -1.149655E+002,  0.000000E+000, -1.227267E+002,  1.222527E+001, -9.509928E+000,  5.008597E-001
  3.887946E+001, -9.906716E+001,  0.000000E+000,  1.077734E+002, -5.335004E-001, -1.980851E+001,  5.004732E-001
  1.260337E+002, -8.349629E+001,  0.000000E+000, -1.259137E+002,  8.170617E+000, -1.245164E+001,  5.005614E-001
  5.319719E+001, -6.252587E+001,  0.000000E+000,  1.147404E+002, -1.751370E-002, -1.854661E+001,  5.006626E-001
  1.408484E+002, -5.050290E+001,  0.000000E+000, -1.286778E+002,  3.461571E+000, -1.522297E+001,  5.008366E-001
  6.977511E+001, -2.426464E+001,  0.000000E+000,  1.210131E+002,  1.365441E+000, -1.693759E+001,  5.000748E-001
  1.508108E+002, -1.373867E+001,  0.000000E+000, -1.302910E+002, -2.783370E+000, -1.585137E+001,  5.000876E-001
  8.855584E+001,  1.154267E+001,  0.000000E+000,  1.252111E+002,  5.770688E-001, -1.459354E+001,  5.002668E-001
  1.595479E+002,  2.404214E+001,  0.000000E+000, -1.315771E+002, -9.393836E+000, -1.599626E+001,  5.002091E-001
  1.069164E+002,  4.332467E+001,  0.000000E+000,  1.271033E+002, -3.160307E+000, -9.287138E+000,  5.003690E-001
  1.680388E+002,  6.234099E+001,  0.000000E+000, -1.325124E+002, -1.603795E+001, -1.595574E+001,  5.001967E-001
  1.251571E+002,  7.552685E+001,  0.000000E+000,  1.283670E+002, -7.397205E+000, -3.393832E+000,  5.002464E-001
  1.760167E+002,  9.917382E+001,  0.000000E+000, -1.327256E+002, -2.245257E+001, -1.499497E+001,  5.002821E-001
  1.318519E+002,  9.741248E+001,  0.000000E+000,  1.290054E+002, -9.376764E+000,  1.002698E+000,  5.005474E-001
  1.832210E+002,  1.323011E+002,  0.000000E+000, -1.317029E+002, -2.738761E+001, -1.228071E+001,  5.004211E-001
  1.254258E+002,  1.064172E+002,  0.000000E+000,  1.290798E+002, -9.492701E+000,  4.409265E+000,  5.001650E-001
  1.914860E+002,  1.652802E+002,  0.000000E+000, -1.286077E+002, -2.907394E+001, -8.540237E+000,  5.007177E-001
  1.185603E+002,  1.150095E+002,  0.000000E+000,  1.289547E+002, -9.647776E+000,  7.891967E+000,  5.006422E-001
  1.993848E+002,  1.978356E+002,  0.000000E+000, -1.241884E+002, -2.841120E+001, -5.055096E+000,  5.000405E-001
  1.116126E+002,  1.229324E+002,  0.000000E+000,  1.285638E+002, -9.882319E+000,  1.038176E+001,  5.002490E-001
  2.064067E+002,  2.292225E+002,  0.000000E+000, -1.190289E+002, -2.663514E+001, -1.702915E+000,  5.003243E-001
  1.027402E+002,  1.315628E+002,  0.000000E+000,  1.273655E+002, -1.012509E+001,  1.149187E+001,  5.003407E-001
  2.129929E+002,  2.575359E+002,  0.000000E+000, -1.138804E+002, -2.485111E+001,  1.622778E+000,  5.004819E-001
  9.102169E+001,  1.425753E+002,  0.000000E+000,  1.235242E+002, -8.634463E+000,  1.048418E+001,  5.006304E-001
  2.189709E+002,  2.832205E+002,  0.000000E+000, -1.089096E+002, -2.306489E+001,  4.552322E+000,  5.005029E-001
  8.011108E+001,  1.531179E+002,  0.000000E+000,  1.193296E+002, -6.725020E+000,  9.399322E+000,  5.002535E-001
  2.228496E+002,  3.051106E+002,  0.000000E+000, -1.042297E+002, -2.134705E+001,  7.261667E+000,  5.004232E-001
  7.218385E+001,  1.646079E+002,  0.000000E+000,  1.134424E+002, -4.936527E+000,  8.497806E+000,  5.001327E-001
  2.173958E+002,  3.135607E+002,  0.000000E+000, -1.005876E+002, -1.956690E+001,  9.506144E+000,  5.006564E-001
  2.164243E+002,  3.184027E+002,  0.000000E+000, -9.788071E+001, -1.901778E+001,  1.021387E+001,  5.008005E-001
  2.143257E+002,  3.228448E+002,  0.000000E+000, -9.463544E+001, -1.826577E+001,  1.093603E+001,  5.001232E-001
  2.110778E+002,  3.261808E+002,  0.000000E+000, -9.108878E+001, -1.725750E+001,  1.167771E+001,  5.005520E-001
  2.067070E+002,  3.290284E+002,  0.000000E+000, -8.715016E+001, -1.587260E+001,  1.243227E+001,  5.005826E-001
  2.017929E+002,  3.319823E+002,  0.000000E+000, -8.282783E+001, -1.433049E+001,  1.314868E+001,  5.001710E-001
  1.961598E+002,  3.350509E+002,  0.000000E+000, -7.784621E+001, -1.294634E+001,  1.358966E+001,  5.003195E-001
  1.889996E+002,  3.379700E+002,  0.000000E+000, -7.187604E+001, -1.207284E+001,  1.336487E+001,  5.006935E-001
  1.800994E+002,  3.398997E+002,  0.000000E+000, -6.546487E+001, -1.139464E+001,  1.267536E+001,  5.009613E-001
  1.680841E+002,  3.353318E+002,  0.000000E+000, -5.393189E+001, -1.142989E+001,  1.063728E+001,  5.006441E-001
  1.549985E+002,  3.165135E+002,  0.000000E+000, -3.226599E+001, -1.049063E+001,  1.027986E+001,  5.000629E-001
  1.426179E+002,  2.983320E+002,  0.000000E+000, -1.168585E+001, -9.571048E+000,  1.005002E+001,  5.000238E-001
  1.306843E+002,  2.796622E+002,  0.000000E+000,  7.611829E+000, -8.503492E+000,  9.529900E+000,  5.006658E-001
  1.193209E+002,  2.617467E+002,  0.000000E+000,  2.541365E+001, -7.576565E+000,  9.149834E+000,  5.007315E-001
  1.086938E+002,  2.448465E+002,  0.000000E+000,  4.189762E+001, -6.693151E+000,  8.879424E+000,  5.005353E-001
  9.882146E+001,  2.290513E+002,  0.000000E+000,  5.719893E+001, -5.894295E+000,  8.640736E+000,  5.002372E-001
  8.953505E+001,  2.143647E+002,  0.000000E+000,  7.133813E+001, -5.182138E+000,  8.417706E+000,  5.006101E-001
  8.105543E+001,  2.006900E+002,  0.000000E+000,  8.433068E+001, -4.446807E+000,  8.141528E+000,  5.000724E-001
  7.310642E+001,  1.879343E+002,  0.000000E+000,  9.645231E+001, -3.772061E+000,  7.894097E+000,  5.006987E-001
  6.642505E+001,  1.760299E+002,  0.000000E+000,  1.067201E+002, -3.820880E+000,  7.887215E+000,  5.001364E-001
  1.017529E+002, -2.127556E+002,  0.000000E+000, -1.007679E+002,  1.084483E+001, -8.473770E+000,  5.002776E-001
  1.050648E+002, -2.167647E+002,  0.000000E+000, -9.824224E+001,  9.394618E+000, -9.500095E+000,  5.003023E-001
  1.060320E+002, -2.204068E+002,  0.000000E+000, -9.588872E+001,  7.990959E+000, -1.143029E+001,  5.000190E-001
  1.057540E+002, -2.261835E+002,  0.000000E+000, -9.191238E+001,  6.594082E+000, -1.364213E+001,  5.004224E-001
  1.032458E+002, -2.349803E+002,  0.000000E+000, -8.519246E+001,  6.158765E+000, -1.602497E+001,  5.003614E-001
  9.695332E+001, -2.482980E+002,  0.000000E+000, -7.400365E+001,  8.182363E+000, -1.897921E+001,  5.000044E-001
  8.853924E+001, -2.645319E+002,  0.000000E+000, -5.980203E+001,  1.166766E+001, -2.245637E+001,  5.005319E-001
  7.955339E+001, -2.820353E+002,  0.000000E+000, -4.433581E+001,  1.541156E+001, -2.623028E+001,  5.002270E-001
  7.056350E+001, -3.001393E+002,  0.000000E+000, -2.753244E+001,  1.941087E+001, -3.038679E+001,  5.006298E-001
  6.251848E+001, -3.096293E+002,  0.000000E+000, -1.497233E+001,  2.296757E+001, -2.986643E+001,  5.001854E-001
  5.642086E+001, -3.059909E+002,  0.000000E+000, -1.217589E+000,  2.235583E+001, -2.487250E+001,  5.008670E-001
  5.143413E+001, -2.979373E+002,  0.000000E+000,  1.413787E+001,  2.027830E+001, -1.955634E+001,  5.003890E-001
  4.737399E+001, -2.904862E+002,  0.000000E+000,  2.674287E+001,  1.789681E+001, -1.615392E+001,  5.010185E-001
  4.434818E+001, -2.852264E+002,  0.000000E+000,  3.437485E+001,  1.424450E+001, -1.597608E+001,  5.003670E-001
  4.097934E+001, -2.798488E+002,  0.000000E+000,  4.045715E+001,  1.006467E+001, -1.709721E+001,  5.008565E-001
  3.767086E+001, -2.743071E+002,  0.000000E+000,  4.601194E+001,  5.895370E+000, -1.855073E+001,  5.006203E-001
  3.409381E+001, -2.680567E+002,  0.000000E+000,  5.137051E+001,  2.168623E+000, -1.986303E+001,  5.000980E-001
  2.915954E+001, -2.580403E+002,  0.000000E+000,  5.765100E+001, -1.764616E-002, -2.066965E+001,  5.002135E-001
  2.333466E+001, -2.434016E+002,  0.000000E+000,  6.493929E+001, -8.139662E-001, -2.079698E+001,  5.005297E-001
  1.773658E+001, -2.276209E+002,  0.000000E+000,  7.212372E+001, -8.550754E-001, -2.122265E+001,  5.002029E-001
  1.005384E+002, -2.073712E+002,  0.000000E+000, -1.029439E+002,  1.201315E+001, -8.085869E+000,  5.000575E-001
  2.730199E+001, -2.045235E+002,  0.000000E+000,  7.693658E+001, -1.000652E+000, -2.088717E+001,  5.000801E-001
  1.010814E+002, -1.965793E+002,  0.000000E+000, -1.059680E+002,  1.272272E+001, -7.892078E+000,  5.005619E-001
  3.809047E+001, -1.785577E+002,  0.000000E+000,  8.226027E+001, -1.043444E+000, -2.041228E+001,  5.000679E-001
  1.139423E+002, -1.669316E+002,  0.000000E+000, -1.102860E+002,  1.170118E+001, -7.110222E+000,  5.002546E-001
  5.014319E+001, -1.492783E+002,  0.000000E+000,  8.811298E+001, -1.091601E+000, -1.976912E+001,  5.001182E-001
  1.280184E+002, -1.338992E+002,  0.000000E+000, -1.149016E+002,  1.060554E+001, -6.252705E+000,  5.005098E-001
  6.307525E+001, -1.179465E+002,  0.000000E+000,  9.432303E+001, -1.122973E+000, -1.909258E+001,  5.001681E-001
  1.425511E+002, -9.994015E+001,  0.000000E+000, -1.193230E+002,  8.839940E+000, -6.128129E+000,  5.001255E-001
  7.693935E+001, -8.441007E+001,  0.000000E+000,  1.009263E+002, -1.083240E+000, -1.842276E+001,  5.004730E-001
  1.580234E+002, -6.872944E+001,  0.000000E+000, -1.225988E+002,  5.115529E+000, -8.353552E+000,  5.001717E-001
  9.174458E+001, -4.831004E+001,  0.000000E+000,  1.078937E+002, -1.123043E+000, -1.738006E+001,  5.006265E-001
  1.742283E+002, -3.698724E+001,  0.000000E+000, -1.255324E+002,  7.622004E-001, -1.140219E+001,  5.007255E-001
  1.076817E+002, -9.676852E+000,  0.000000E+000,  1.150424E+002, -8.366110E-001, -1.617386E+001,  5.007255E-001
  1.901832E+002, -3.638445E+000,  0.000000E+000, -1.280336E+002, -4.331130E+000, -1.437542E+001,  5.001967E-001
  1.253485E+002,  2.957996E+001,  0.000000E+000,  1.212722E+002, -3.249765E-001, -1.466565E+001,  5.000136E-001
  2.011467E+002,  3.310554E+001,  0.000000E+000, -1.296142E+002, -1.048749E+001, -1.527578E+001,  5.000307E-001
  1.451141E+002,  6.200551E+001,  0.000000E+000,  1.236387E+002, -3.236569E+000, -1.134673E+001,  5.000880E-001
  2.091274E+002,  7.040104E+001,  0.000000E+000, -1.306236E+002, -1.724932E+001, -1.539799E+001,  5.001035E-001
  1.558043E+002,  8.592648E+001,  0.000000E+000,  1.246768E+002, -5.576710E+000, -6.489519E+000,  5.001001E-001
  2.142758E+002,  1.055310E+002,  0.000000E+000, -1.311258E+002, -2.377032E+001, -1.500120E+001,  5.001157E-001
  1.504080E+002,  9.477515E+001,  0.000000E+000,  1.253494E+002, -5.707703E+000, -2.744192E+000,  5.001842E-001
  2.196013E+002,  1.402501E+002,  0.000000E+000, -1.310533E+002, -2.963723E+001, -1.410254E+001,  5.005022E-001
  1.447755E+002,  1.033435E+002,  0.000000E+000,  1.257200E+002, -5.987906E+000,  3.175576E-001,  5.004293E-001
  2.253904E+002,  1.753078E+002,  0.000000E+000, -1.289624E+002, -3.239544E+001, -1.237245E+001,  5.003359E-001
  1.385714E+002,  1.113389E+002,  0.000000E+000,  1.258238E+002, -6.282726E+000,  3.373108E+000,  5.006113E-001
  2.317948E+002,  2.085601E+002,  0.000000E+000, -1.249721E+002, -3.215754E+001, -9.332133E+000,  5.003654E-001
  1.317592E+002,  1.190348E+002,  0.000000E+000,  1.258081E+002, -6.585837E+000,  6.591830E+000,  5.000707E-001
  2.378890E+002,  2.400032E+002,  0.000000E+000, -1.201198E+002, -3.049888E+001, -6.086080E+000,  5.002357E-001
  1.247673E+002,  1.263978E+002,  0.000000E+000,  1.255006E+002, -6.942387E+000,  9.097341E+000,  5.007701E-001
  2.435463E+002,  2.691336E+002,  0.000000E+000, -1.151859E+002, -2.874654E+001, -2.796698E+000,  5.000926E-001
  1.152942E+002,  1.354705E+002,  0.000000E+000,  1.234542E+002, -6.379865E+000,  9.898470E+000,  5.003448E-001
  2.479932E+002,  2.946864E+002,  0.000000E+000, -1.102826E+002, -2.686929E+001,  5.163557E-001,  5.002953E-001
  1.050267E+002,  1.478215E+002,  0.000000E+000,  1.178684E+002, -4.636923E+000,  8.886897E+000,  5.007027E-001
  2.458160E+002,  3.093353E+002,  0.000000E+000, -1.061508E+002, -2.472717E+001,  3.387783E+000,  5.001752E-001
  9.739355E+001,  1.605919E+002,  0.000000E+000,  1.107926E+002, -3.534531E+000,  8.225628E+000,  5.001028E-001
  2.371084E+002,  3.142176E+002,  0.000000E+000, -1.027933E+002, -2.283530E+001,  5.890686E+000,  5.005101E-001
  2.371271E+002,  3.184146E+002,  0.000000E+000, -1.003694E+002, -2.248277E+001,  6.465976E+000,  5.001137E-001
  2.361802E+002,  3.221534E+002,  0.000000E+000, -9.750768E+001, -2.171138E+001,  7.152574E+000,  5.008437E-001
  2.334206E+002,  3.247959E+002,  0.000000E+000, -9.421891E+001, -2.073679E+001,  7.735652E+000,  5.001446E-001
  2.302494E+002,  3.274038E+002,  0.000000E+000, -9.061580E+001, -1.962241E+001,  8.299186E+000,  5.003706E-001
  2.267293E+002,  3.301760E+002,  0.000000E+000, -8.645981E+001, -1.829398E+001,  8.849537E+000,  5.008345E-001
  2.228253E+002,  3.330298E+002,  0.000000E+000, -8.180268E+001, -1.687594E+001,  9.304748E+000,  5.003365E-001
  2.186080E+002,  3.356244E+002,  0.000000E+000, -7.649330E+001, -1.528157E+001,  9.627528E+000,  5.004370E-001
  2.135175E+002,  3.357110E+002,  0.000000E+000, -6.973155E+001, -1.311805E+001,  1.026568E+001,  5.009261E-001
  2.039546E+002,  3.253329E+002,  0.000000E+000, -5.479379E+001, -1.139949E+001,  1.071420E+001,  5.000124E-001
  1.903874E+002,  3.073600E+002,  0.000000E+000, -3.384605E+001, -1.048220E+001,  1.047926E+001,  5.002306E-001
  1.774224E+002,  2.901915E+002,  0.000000E+000, -1.408911E+001, -9.549612E+000,  1.025092E+001,  5.001150E-001
  1.642315E+002,  2.729243E+002,  0.000000E+000,  4.673950E+000, -8.574414E+000,  9.952640E+000,  5.007008E-001
  1.515918E+002,  2.559884E+002,  0.000000E+000,  2.205333E+001, -7.683044E+000,  9.604184E+000,  5.000346E-001
  1.398697E+002,  2.399766E+002,  0.000000E+000,  3.814762E+001, -6.777382E+000,  9.250489E+000,  5.004271E-001
  1.289792E+002,  2.248857E+002,  0.000000E+000,  5.310168E+001, -6.003852E+000,  8.970929E+000,  5.005854E-001
  1.188753E+002,  2.107881E+002,  0.000000E+000,  6.693006E+001, -5.298337E+000,  8.731839E+000,  5.000648E-001
  1.094452E+002,  1.976311E+002,  0.000000E+000,  7.981868E+001, -4.661897E+000,  8.520919E+000,  5.005018E-001
  1.007749E+002,  1.853456E+002,  0.000000E+000,  9.173054E+001, -4.007119E+000,  8.266730E+000,  5.001888E-001
  9.235172E+001,  1.734775E+002,  0.000000E+000,  1.027289E+002, -3.457311E+000,  8.040654E+000,  5.000189E-001
  1.087871E+002, -2.118177E+002,  0.000000E+000, -9.913249E+001,  9.979553E+000, -8.790032E+000,  5.010385E-001
  1.105177E+002, -2.144031E+002,  0.000000E+000, -9.741591E+001,  8.699647E+000, -1.043961E+001,  5.009930E-001
  1.117122E+002, -2.175427E+002,  0.000000E+000, -9.535633E+001,  7.317728E+000, -1.236685E+001,  5.009946E-001
  1.117813E+002, -2.227742E+002,  0.000000E+000, -9.167905E+001,  5.893159E+000, -1.452354E+001,  5.003655E-001
  1.098317E+002, -2.303357E+002,  0.000000E+000, -8.587159E+001,  5.272611E+000, -1.687107E+001,  5.004670E-001
  1.049859E+002, -2.417618E+002,  0.000000E+000, -7.608075E+001,  6.569862E+000, -1.963521E+001,  5.005730E-001
  9.864875E+001, -2.558883E+002,  0.000000E+000, -6.214750E+001,  9.882590E+000, -2.305172E+001,  5.003532E-001
  9.430150E+001, -2.688778E+002,  0.000000E+000, -4.646113E+001,  1.330077E+001, -2.632468E+001,  5.004678E-001
  9.569431E+001, -2.768056E+002,  0.000000E+000, -2.819937E+001,  1.646076E+001, -2.876658E+001,  5.000541E-001
  9.771597E+001, -2.785705E+002,  0.000000E+000, -1.491094E+001,  2.005175E+001, -2.718947E+001,  5.010075E-001
  9.478831E+001, -2.741719E+002,  0.000000E+000, -2.941293E+000,  2.069203E+001, -2.223193E+001,  5.003541E-001
  8.852943E+001, -2.683963E+002,  0.000000E+000,  1.160895E+001,  1.908125E+001, -1.734581E+001,  5.003912E-001
  8.274066E+001, -2.627345E+002,  0.000000E+000,  2.429764E+001,  1.700759E+001, -1.373909E+001,  5.005129E-001
  7.838724E+001, -2.590592E+002,  0.000000E+000,  3.193528E+001,  1.370468E+001, -1.324212E+001,  5.000606E-001
  7.426229E+001, -2.549506E+002,  0.000000E+000,  3.786045E+001,  9.855354E+000, -1.418119E+001,  5.004676E-001
  7.011402E+001, -2.505150E+002,  0.000000E+000,  4.325840E+001,  5.849626E+000, -1.556848E+001,  5.005280E-001
  6.573325E+001, -2.460552E+002,  0.000000E+000,  4.812091E+001,  2.210277E+000, -1.700439E+001,  5.008253E-001
  6.041657E+001, -2.391535E+002,  0.000000E+000,  5.355038E+001, -2.773092E-001, -1.810344E+001,  5.007225E-001
  5.393585E+001, -2.275580E+002,  0.000000E+000,  6.036065E+001, -1.233931E+000, -1.893446E+001,  5.005093E-001
  4.723187E+001, -2.131871E+002,  0.000000E+000,  6.757869E+001, -1.190309E+000, -1.961388E+001,  5.006885E-001
  1.125452E+002, -2.037139E+002,  0.000000E+000, -1.008464E+002,  1.045908E+001, -7.676684E+000,  5.002923E-001
  5.836212E+001, -1.892675E+002,  0.000000E+000,  7.210498E+001, -1.301326E+000, -1.910870E+001,  5.000514E-001
  1.272787E+002, -1.802419E+002,  0.000000E+000, -1.035258E+002,  9.295883E+000, -5.728299E+000,  5.007627E-001
  7.073972E+001, -1.629875E+002,  0.000000E+000,  7.698540E+001, -1.498236E+000, -1.856625E+001,  5.004761E-001
  1.415951E+002, -1.511280E+002,  0.000000E+000, -1.073942E+002,  8.107368E+000, -4.681929E+000,  5.000349E-001
  8.370096E+001, -1.343827E+002,  0.000000E+000,  8.234075E+001, -1.614939E+000, -1.787726E+001,  5.006998E-001
  1.561556E+002, -1.192928E+002,  0.000000E+000, -1.116766E+002,  7.001576E+000, -3.727962E+000,  5.009546E-001
  9.732659E+001, -1.034711E+002,  0.000000E+000,  8.813337E+001, -1.655973E+000, -1.703477E+001,  5.002810E-001
  1.712779E+002, -8.614166E+001,  0.000000E+000, -1.159758E+002,  5.469116E+000, -3.104184E+000,  5.006809E-001
  1.119391E+002, -7.052965E+001,  0.000000E+000,  9.426781E+001, -1.666338E+000, -1.619762E+001,  5.001557E-001
  1.872869E+002, -5.503525E+001,  0.000000E+000, -1.193659E+002,  2.206162E+000, -4.747652E+000,  5.004614E-001
  1.275607E+002, -3.521434E+001,  0.000000E+000,  1.008014E+002, -1.828877E+000, -1.502491E+001,  5.002132E-001
  2.039299E+002, -2.390976E+001,  0.000000E+000, -1.223374E+002, -1.917842E+000, -7.264544E+000,  5.002161E-001
  1.438928E+002,  2.526149E+000,  0.000000E+000,  1.076884E+002, -2.030524E+000, -1.364814E+001,  5.001850E-001
  2.212003E+002,  8.292599E+000,  0.000000E+000, -1.250422E+002, -6.634632E+000, -1.037958E+001,  5.005244E-001
  1.613244E+002,  4.270750E+001,  0.000000E+000,  1.146657E+002, -1.894110E+000, -1.220155E+001,  5.005267E-001
  2.374342E+002,  4.176155E+001,  0.000000E+000, -1.273252E+002, -1.223128E+001, -1.355945E+001,  5.007312E-001
  1.748211E+002,  7.532521E+001,  0.000000E+000,  1.194119E+002, -1.398171E+000, -1.092791E+001,  5.001773E-001
  2.462841E+002,  7.628113E+001,  0.000000E+000, -1.287466E+002, -1.832585E+001, -1.465034E+001,  5.001832E-001
  1.722490E+002,  8.408319E+001,  0.000000E+000,  1.206602E+002, -1.448636E+000, -9.281058E+000,  5.004315E-001
  2.511599E+002,  1.107008E+002,  0.000000E+000, -1.292502E+002, -2.472336E+001, -1.429516E+001,  5.002792E-001
  1.673381E+002,  9.243424E+001,  0.000000E+000,  1.215637E+002, -1.684943E+000, -6.032100E+000,  5.000750E-001
  2.533218E+002,  1.441483E+002,  0.000000E+000, -1.291593E+002, -3.015554E+001, -1.335483E+001,  5.006211E-001
  1.619075E+002,  1.007948E+002,  0.000000E+000,  1.221806E+002, -2.103223E+000, -2.766003E+000,  5.005289E-001
  2.536494E+002,  1.778949E+002,  0.000000E+000, -1.276021E+002, -3.301634E+001, -1.219048E+001,  5.007777E-001
  1.563800E+002,  1.083499E+002,  0.000000E+000,  1.224621E+002, -2.573349E+000,  2.274605E-002,  5.008648E-001
  2.537920E+002,  2.104593E+002,  0.000000E+000, -1.246674E+002, -3.362296E+001, -1.045954E+001,  5.003775E-001
  1.504238E+002,  1.154621E+002,  0.000000E+000,  1.226388E+002, -2.990767E+000,  2.754193E+000,  5.007602E-001
  2.546241E+002,  2.407990E+002,  0.000000E+000, -1.205521E+002, -3.261617E+001, -7.919530E+000,  5.009071E-001
  1.438091E+002,  1.225701E+002,  0.000000E+000,  1.226234E+002, -3.361971E+000,  5.693246E+000,  5.002285E-001
  2.563704E+002,  2.677240E+002,  0.000000E+000, -1.158553E+002, -3.060999E+001, -4.410118E+000,  5.001583E-001
  1.377207E+002,  1.309944E+002,  0.000000E+000,  1.211735E+002, -3.596299E+000,  8.293345E+000,  5.004723E-001
  2.580679E+002,  2.923415E+002,  0.000000E+000, -1.110947E+002, -2.866824E+001, -8.910519E-001,  5.005388E-001
  1.301538E+002,  1.441653E+002,  0.000000E+000,  1.149891E+002, -3.159247E+000,  8.646693E+000,  5.000118E-001
  2.589668E+002,  3.098935E+002,  0.000000E+000, -1.070079E+002, -2.702011E+001,  1.591708E+000,  5.005192E-001
  1.234547E+002,  1.585393E+002,  0.000000E+000,  1.063682E+002, -3.316365E+000,  8.456376E+000,  5.006704E-001
  2.555883E+002,  3.146787E+002,  0.000000E+000, -1.047512E+002, -2.577585E+001,  2.465184E+000,  5.008987E-001
  2.563241E+002,  3.184000E+002,  0.000000E+000, -1.024032E+002, -2.537016E+001,  2.910293E+000,  5.001490E-001
  2.556100E+002,  3.208871E+002,  0.000000E+000, -9.986388E+001, -2.470923E+001,  3.403828E+000,  5.008746E-001
  2.544951E+002,  3.232608E+002,  0.000000E+000, -9.694063E+001, -2.390887E+001,  3.847631E+000,  5.000607E-001
  2.528876E+002,  3.256604E+002,  0.000000E+000, -9.346014E+001, -2.307255E+001,  4.166624E+000,  5.002166E-001
  2.510480E+002,  3.278512E+002,  0.000000E+000, -8.941106E+001, -2.186667E+001,  4.698962E+000,  5.009010E-001
  2.497701E+002,  3.290811E+002,  0.000000E+000, -8.412002E+001, -1.947155E+001,  6.037593E+000,  5.002111E-001
  2.483828E+002,  3.295914E+002,  0.000000E+000, -7.812463E+001, -1.655692E+001,  7.674310E+000,  5.001269E-001
  2.456908E+002,  3.269586E+002,  0.000000E+000, -7.055785E+001, -1.337790E+001,  9.727734E+000,  5.007592E-001
  2.366027E+002,  3.157298E+002,  0.000000E+000, -5.540132E+001, -1.138617E+001,  1.087423E+001,  5.001488E-001
  2.226067E+002,  2.987489E+002,  0.000000E+000, -3.526317E+001, -1.051303E+001,  1.067285E+001,  5.005558E-001
  2.090323E+002,  2.824269E+002,  0.000000E+000, -1.632374E+001, -9.581570E+000,  1.045970E+001,  5.003668E-001
  1.952670E+002,  2.660538E+002,  0.000000E+000,  1.734575E+000, -8.625937E+000,  1.015840E+001,  5.003602E-001
  1.819149E+002,  2.501516E+002,  0.000000E+000,  1.862829E+001, -7.783103E+000,  9.879156E+000,  5.005871E-001
  1.692892E+002,  2.350628E+002,  0.000000E+000,  3.436804E+001, -6.948289E+000,  9.607456E+000,  5.007448E-001
  1.574319E+002,  2.207728E+002,  0.000000E+000,  4.907334E+001, -6.159738E+000,  9.299531E+000,  5.002009E-001
  1.464324E+002,  2.073756E+002,  0.000000E+000,  6.274650E+001, -5.459936E+000,  9.054089E+000,  5.006232E-001
  1.363030E+002,  1.947479E+002,  0.000000E+000,  7.541481E+001, -4.821564E+000,  8.829277E+000,  5.002762E-001
  1.268077E+002,  1.829245E+002,  0.000000E+000,  8.721068E+001, -4.268438E+000,  8.663648E+000,  5.006350E-001
  1.178589E+002,  1.717115E+002,  0.000000E+000,  9.807182E+001, -3.708129E+000,  8.461811E+000,  5.004053E-001
  1.199794E+002, -2.037340E+002,  0.000000E+000, -9.832838E+001,  8.491797E+000, -8.960706E+000,  5.004911E-001
  1.196917E+002, -2.079286E+002,  0.000000E+000, -9.676124E+001,  7.479166E+000, -1.087217E+001,  5.008044E-001
  1.197841E+002, -2.121073E+002,  0.000000E+000, -9.476776E+001,  6.322203E+000, -1.294349E+001,  5.010336E-001
  1.200330E+002, -2.170387E+002,  0.000000E+000, -9.114339E+001,  5.060835E+000, -1.518412E+001,  5.009102E-001
  1.195501E+002, -2.227608E+002,  0.000000E+000, -8.580240E+001,  4.384554E+000, -1.761002E+001,  5.011336E-001
  1.195485E+002, -2.293321E+002,  0.000000E+000, -7.595797E+001,  5.153934E+000, -1.977406E+001,  5.006371E-001
  1.215243E+002, -2.353831E+002,  0.000000E+000, -6.057125E+001,  7.745138E+000, -2.175725E+001,  5.000299E-001
  1.240861E+002, -2.412944E+002,  0.000000E+000, -4.397177E+001,  1.047883E+001, -2.374092E+001,  5.005065E-001
  1.269902E+002, -2.470572E+002,  0.000000E+000, -2.644362E+001,  1.331032E+001, -2.576098E+001,  5.006181E-001
  1.294591E+002, -2.485052E+002,  0.000000E+000, -1.327474E+001,  1.659140E+001, -2.455149E+001,  5.006718E-001
  1.292363E+002, -2.448320E+002,  0.000000E+000, -4.338957E+000,  1.902894E+001, -1.977612E+001,  5.002973E-001
  1.230356E+002, -2.403550E+002,  0.000000E+000,  9.061630E+000,  1.805342E+001, -1.523595E+001,  5.002288E-001
  1.162782E+002, -2.360419E+002,  0.000000E+000,  2.156451E+001,  1.618251E+001, -1.158304E+001,  5.002376E-001
  1.107601E+002, -2.335058E+002,  0.000000E+000,  2.943595E+001,  1.327560E+001, -1.083592E+001,  5.001657E-001
  1.056427E+002, -2.312104E+002,  0.000000E+000,  3.525142E+001,  9.695425E+000, -1.157126E+001,  5.009368E-001
  1.003686E+002, -2.281315E+002,  0.000000E+000,  4.065872E+001,  5.916221E+000, -1.282347E+001,  5.007532E-001
  9.527425E+001, -2.248793E+002,  0.000000E+000,  4.527797E+001,  2.428231E+000, -1.427461E+001,  5.000750E-001
  8.974524E+001, -2.198290E+002,  0.000000E+000,  5.014801E+001, -2.661597E-001, -1.545745E+001,  5.003514E-001
  8.301730E+001, -2.105855E+002,  0.000000E+000,  5.631977E+001, -1.497752E+000, -1.645451E+001,  5.000374E-001
  7.563370E+001, -1.980953E+002,  0.000000E+000,  6.328354E+001, -1.607636E+000, -1.737154E+001,  5.004912E-001
  1.356394E+002, -1.849829E+002,  0.000000E+000, -9.962072E+001,  7.389401E+000, -6.384384E+000,  5.000827E-001
  8.781398E+001, -1.738944E+002,  0.000000E+000,  6.751605E+001, -1.808609E+000, -1.668854E+001,  5.004004E-001
  1.516173E+002, -1.630265E+002,  0.000000E+000, -1.015916E+002,  6.134403E+000, -4.000699E+000,  5.003007E-001
  1.007972E+002, -1.479618E+002,  0.000000E+000,  7.204816E+001, -2.024522E+000, -1.598231E+001,  5.007061E-001
  1.670135E+002, -1.362852E+002,  0.000000E+000, -1.047406E+002,  4.825767E+000, -2.423455E+000,  5.008884E-001
  1.144769E+002, -1.200870E+002,  0.000000E+000,  7.692448E+001, -2.221653E+000, -1.523806E+001,  5.001815E-001
  1.818966E+002, -1.056283E+002,  0.000000E+000, -1.087225E+002,  3.615173E+000, -1.425987E+000,  5.000805E-001
  1.288904E+002, -8.987741E+001,  0.000000E+000,  8.226769E+001, -2.327717E+000, -1.435977E+001,  5.007169E-001
  1.972541E+002, -7.329536E+001,  0.000000E+000, -1.128419E+002,  2.219082E+000, -5.744535E-001,  5.000523E-001
  1.440158E+002, -5.765437E+001,  0.000000E+000,  8.798379E+001, -2.405815E+000, -1.342696E+001,  5.007457E-001
  2.138412E+002, -4.229204E+001,  0.000000E+000, -1.162722E+002, -6.056107E-001, -1.393856E+000,  5.005879E-001
  1.600136E+002, -2.325173E+001,  0.000000E+000,  9.406635E+001, -2.634865E+000, -1.219710E+001,  5.006626E-001
  2.308771E+002, -1.197042E+001,  0.000000E+000, -1.192096E+002, -4.543097E+000, -3.620797E+000,  5.006229E-001
  1.770529E+002,  1.349533E+001,  0.000000E+000,  1.005209E+002, -2.947446E+000, -1.081739E+001,  5.006057E-001
  2.478653E+002,  1.921907E+001,  0.000000E+000, -1.219997E+002, -9.130953E+000, -6.296168E+000,  5.006105E-001
  1.870802E+002,  4.700806E+001,  0.000000E+000,  1.075006E+002, -1.466114E+000, -9.774631E+000,  5.002376E-001
  2.635930E+002,  5.003448E+001,  0.000000E+000, -1.245038E+002, -1.420753E+001, -9.495592E+000,  5.001218E-001
  1.854909E+002,  7.181531E+001,  0.000000E+000,  1.145035E+002,  1.690856E+000, -9.298459E+000,  5.001836E-001
  2.662707E+002,  7.598507E+001,  0.000000E+000, -1.260716E+002, -1.776508E+001, -1.099481E+001,  5.009478E-001
  1.840920E+002,  8.326032E+001,  0.000000E+000,  1.168902E+002,  2.606550E+000, -9.066232E+000,  5.006900E-001
  2.666433E+002,  1.072441E+002,  0.000000E+000, -1.264349E+002, -2.347720E+001, -9.902313E+000,  5.004418E-001
  1.818557E+002,  9.047210E+001,  0.000000E+000,  1.177795E+002,  2.334446E+000, -8.018353E+000,  5.006798E-001
  2.666304E+002,  1.383484E+002,  0.000000E+000, -1.260901E+002, -2.803395E+001, -8.792096E+000,  5.006755E-001
  1.775576E+002,  9.831846E+001,  0.000000E+000,  1.184909E+002,  1.820953E+000, -5.483108E+000,  5.004840E-001
  2.660180E+002,  1.704568E+002,  0.000000E+000, -1.243847E+002, -3.025652E+001, -7.722244E+000,  5.008775E-001
  1.721318E+002,  1.058205E+002,  0.000000E+000,  1.190127E+002,  1.262975E+000, -2.561602E+000,  5.002474E-001
  2.649585E+002,  2.018071E+002,  0.000000E+000, -1.218853E+002, -3.108931E+001, -6.650093E+000,  5.000753E-001
  1.665248E+002,  1.125669E+002,  0.000000E+000,  1.193424E+002,  7.202041E-001,  1.449291E-002,  5.006337E-001
  2.637122E+002,  2.319911E+002,  0.000000E+000, -1.188421E+002, -3.120358E+001, -5.544704E+000,  5.006902E-001
  1.613064E+002,  1.198135E+002,  0.000000E+000,  1.188971E+002,  2.559043E-001,  2.490009E+000,  5.006168E-001
  2.628584E+002,  2.602546E+002,  0.000000E+000, -1.155263E+002, -3.096506E+001, -4.188158E+000,  5.007361E-001
  1.575118E+002,  1.299870E+002,  0.000000E+000,  1.157516E+002, -5.840937E-001,  5.375577E+000,  5.007113E-001
  2.631942E+002,  2.856976E+002,  0.000000E+000, -1.113138E+002, -2.997458E+001, -1.912505E+000,  5.005776E-001
  1.552913E+002,  1.428500E+002,  0.000000E+000,  1.094957E+002, -2.628986E+000,  8.358420E+000,  5.003187E-001
  2.644791E+002,  3.074194E+002,  0.000000E+000, -1.068122E+002, -2.825251E+001,  1.076040E+000,  5.006174E-001
  1.488735E+002,  1.571081E+002,  0.000000E+000,  1.012664E+002, -3.494967E+000,  8.859350E+000,  5.003154E-001
  2.640029E+002,  3.146234E+002,  0.000000E+000, -1.047295E+002, -2.716673E+001,  1.722087E+000,  5.006308E-001
  2.659124E+002,  3.174419E+002,  0.000000E+000, -1.027303E+002, -2.692985E+001,  1.668685E+000,  5.003448E-001
  2.677466E+002,  3.193929E+002,  0.000000E+000, -1.005580E+002, -2.667400E+001,  1.504796E+000,  5.008640E-001
  2.700711E+002,  3.210130E+002,  0.000000E+000, -9.783132E+001, -2.602122E+001,  1.565910E+000,  5.002775E-001
  2.726973E+002,  3.220992E+002,  0.000000E+000, -9.421630E+001, -2.458360E+001,  2.415500E+000,  5.004919E-001
  2.746992E+002,  3.225017E+002,  0.000000E+000, -8.969415E+001, -2.240906E+001,  3.933356E+000,  5.000582E-001
  2.759686E+002,  3.223696E+002,  0.000000E+000, -8.429686E+001, -1.977886E+001,  5.597781E+000,  5.002782E-001
  2.761317E+002,  3.209485E+002,  0.000000E+000, -7.791560E+001, -1.651646E+001,  7.711301E+000,  5.003299E-001
  2.742935E+002,  3.170718E+002,  0.000000E+000, -7.003246E+001, -1.328546E+001,  1.009397E+001,  5.005842E-001
  2.660690E+002,  3.066821E+002,  0.000000E+000, -5.582103E+001, -1.131547E+001,  1.114442E+001,  5.000617E-001
  2.519740E+002,  2.906461E+002,  0.000000E+000, -3.652659E+001, -1.049004E+001,  1.090420E+001,  5.005440E-001
  2.380944E+002,  2.751212E+002,  0.000000E+000, -1.835103E+001, -9.563751E+000,  1.065037E+001,  5.001638E-001
  2.240146E+002,  2.596625E+002,  0.000000E+000, -1.003496E+000, -8.661435E+000,  1.038087E+001,  5.002228E-001
  2.101791E+002,  2.445267E+002,  0.000000E+000,  1.538052E+001, -7.838152E+000,  1.011583E+001,  5.006029E-001
  1.969808E+002,  2.301417E+002,  0.000000E+000,  3.067770E+001, -7.025164E+000,  9.831775E+000,  5.006288E-001
  1.845189E+002,  2.165535E+002,  0.000000E+000,  4.504777E+001, -6.272819E+000,  9.537812E+000,  5.007424E-001
  1.728062E+002,  2.038108E+002,  0.000000E+000,  5.849380E+001, -5.549828E+000,  9.260346E+000,  5.002219E-001
  1.617874E+002,  1.918619E+002,  0.000000E+000,  7.102507E+001, -4.933779E+000,  9.079167E+000,  5.003801E-001
  1.515467E+002,  1.805839E+002,  0.000000E+000,  8.269099E+001, -4.424684E+000,  8.970799E+000,  5.006239E-001
  1.419738E+002,  1.699783E+002,  0.000000E+000,  9.354314E+001, -3.934152E+000,  8.859345E+000,  5.001109E-001
  1.408120E+002, -1.851037E+002,  0.000000E+000, -9.770232E+001,  5.672982E+000, -7.903386E+000,  5.010148E-001
  1.411455E+002, -1.886224E+002,  0.000000E+000, -9.616410E+001,  4.607283E+000, -9.731149E+000,  5.005436E-001
  1.416074E+002, -1.926438E+002,  0.000000E+000, -9.378136E+001,  3.372634E+000, -1.176762E+001,  5.008619E-001
  1.421214E+002, -1.971447E+002,  0.000000E+000, -9.003378E+001,  2.140749E+000, -1.393596E+001,  5.009372E-001
  1.429350E+002, -2.016963E+002,  0.000000E+000, -8.383916E+001,  1.669882E+000, -1.601540E+001,  5.003301E-001
  1.450058E+002, -2.063994E+002,  0.000000E+000, -7.228276E+001,  3.007481E+000, -1.777536E+001,  5.010181E-001
  1.480306E+002, -2.110511E+002,  0.000000E+000, -5.726697E+001,  5.466476E+000, -1.953330E+001,  5.000363E-001
  1.514170E+002, -2.156701E+002,  0.000000E+000, -4.136490E+001,  7.986134E+000, -2.128939E+001,  5.003857E-001
  1.546296E+002, -2.204074E+002,  0.000000E+000, -2.484416E+001,  1.066225E+001, -2.308118E+001,  5.005331E-001
  1.571852E+002, -2.218908E+002,  0.000000E+000, -1.181422E+001,  1.351788E+001, -2.226102E+001,  5.005232E-001
  1.588863E+002, -2.184582E+002,  0.000000E+000, -4.793765E+000,  1.691813E+001, -1.759129E+001,  5.011369E-001
  1.542000E+002, -2.147942E+002,  0.000000E+000,  6.749309E+000,  1.706618E+001, -1.331528E+001,  5.000858E-001
  1.471240E+002, -2.112920E+002,  0.000000E+000,  1.885694E+001,  1.547594E+001, -9.644684E+000,  5.006814E-001
  1.409819E+002, -2.093192E+002,  0.000000E+000,  2.702742E+001,  1.289244E+001, -8.586867E+000,  5.005204E-001
  1.355462E+002, -2.080402E+002,  0.000000E+000,  3.263583E+001,  9.581015E+000, -9.189618E+000,  5.010190E-001
  1.296275E+002, -2.060090E+002,  0.000000E+000,  3.799979E+001,  6.081401E+000, -1.033795E+001,  5.005927E-001
  1.239307E+002, -2.036401E+002,  0.000000E+000,  4.269464E+001,  2.681596E+000, -1.171986E+001,  5.009691E-001
  1.180469E+002, -2.002911E+002,  0.000000E+000,  4.712655E+001, -2.086018E-001, -1.299277E+001,  5.001350E-001
  1.108269E+002, -1.935311E+002,  0.000000E+000,  5.267130E+001, -1.727346E+000, -1.402637E+001,  5.001049E-001
  1.026644E+002, -1.832781E+002,  0.000000E+000,  5.923981E+001, -2.080805E+000, -1.502740E+001,  5.006736E-001
  1.568729E+002, -1.669039E+002,  0.000000E+000, -9.868160E+001,  4.491173E+000, -5.238413E+000,  5.009510E-001
  1.153997E+002, -1.593245E+002,  0.000000E+000,  6.320600E+001, -2.287283E+000, -1.426140E+001,  5.001430E-001
  1.733586E+002, -1.459780E+002,  0.000000E+000, -1.002221E+002,  3.239261E+000, -2.743181E+000,  5.003074E-001
  1.288855E+002, -1.337597E+002,  0.000000E+000,  6.741915E+001, -2.539710E+000, -1.345928E+001,  5.001698E-001
  1.899064E+002, -1.217007E+002,  0.000000E+000, -1.025318E+002,  1.825121E+000, -5.881233E-001,  5.007840E-001
  1.431557E+002, -1.064494E+002,  0.000000E+000,  7.189096E+001, -2.782618E+000, -1.263394E+001,  5.000251E-001
  2.055457E+002, -9.287201E+001,  0.000000E+000, -1.059987E+002,  4.535724E-001,  7.111697E-001,  5.006094E-001
  1.581600E+002, -7.715763E+001,  0.000000E+000,  7.677290E+001, -2.971443E+000, -1.176075E+001,  5.004593E-001
  2.211538E+002, -6.148372E+001,  0.000000E+000, -1.098980E+002, -8.998957E-001,  1.711528E+000,  5.005488E-001
  1.736462E+002, -4.580494E+001,  0.000000E+000,  8.208235E+001, -3.090623E+000, -1.077245E+001,  5.004067E-001
  2.374220E+002, -3.054597E+001,  0.000000E+000, -1.134236E+002, -3.339617E+000,  1.577433E+000,  5.008632E-001
  1.895875E+002, -1.247344E+001,  0.000000E+000,  8.776360E+001, -3.272584E+000, -9.549729E+000,  5.007313E-001
  2.544388E+002, -1.330244E+000,  0.000000E+000, -1.162590E+002, -7.196118E+000, -2.427506E-001,  5.007798E-001
  1.975394E+002,  1.657435E+001,  0.000000E+000,  9.421913E+001, -1.608544E+000, -8.724552E+000,  5.002929E-001
  2.704781E+002,  2.803079E+001,  0.000000E+000, -1.190816E+002, -1.137313E+001, -2.572867E+000,  5.005315E-001
  1.967820E+002,  4.009120E+001,  0.000000E+000,  1.013171E+002,  9.894860E-001, -8.110877E+000,  5.000949E-001
  2.782818E+002,  5.218460E+001,  0.000000E+000, -1.217568E+002, -1.424950E+001, -4.985899E+000,  5.001811E-001
  1.947160E+002,  6.359042E+001,  0.000000E+000,  1.083106E+002,  3.673481E+000, -7.662759E+000,  5.007149E-001
  2.769560E+002,  7.283308E+001,  0.000000E+000, -1.231510E+002, -1.658856E+001, -6.464511E+000,  5.005539E-001
  1.924980E+002,  8.187985E+001,  0.000000E+000,  1.131471E+002,  5.803956E+000, -7.410776E+000,  5.007705E-001
  2.764936E+002,  1.024256E+002,  0.000000E+000, -1.236318E+002, -2.200275E+001, -5.475615E+000,  5.005861E-001
  1.912284E+002,  8.922894E+001,  0.000000E+000,  1.143199E+002,  5.970267E+000, -7.507233E+000,  5.008549E-001
  2.758526E+002,  1.320184E+002,  0.000000E+000, -1.231864E+002, -2.598809E+001, -4.492589E+000,  5.000536E-001
  1.889735E+002,  9.602493E+001,  0.000000E+000,  1.149595E+002,  5.447661E+000, -6.859407E+000,  5.004145E-001
  2.747833E+002,  1.626897E+002,  0.000000E+000, -1.213091E+002, -2.756014E+001, -3.603790E+000,  5.002703E-001
  1.851693E+002,  1.028969E+002,  0.000000E+000,  1.155141E+002,  4.786300E+000, -4.990104E+000,  5.001650E-001
  2.734886E+002,  1.926483E+002,  0.000000E+000, -1.188825E+002, -2.825613E+001, -2.720426E+000,  5.000750E-001
  1.798783E+002,  1.095449E+002,  0.000000E+000,  1.158799E+002,  4.194193E+000, -2.268707E+000,  5.006481E-001
  2.720838E+002,  2.214764E+002,  0.000000E+000, -1.160169E+002, -2.840912E+001, -1.833583E+000,  5.009435E-001
  1.760398E+002,  1.187215E+002,  0.000000E+000,  1.138733E+002,  3.414715E+000,  4.393122E-001,  5.008113E-001
  2.709741E+002,  2.492183E+002,  0.000000E+000, -1.128609E+002, -2.858865E+001, -9.393319E-001,  5.007032E-001
  1.744764E+002,  1.307465E+002,  0.000000E+000,  1.087721E+002,  1.497135E+000,  3.085678E+000,  5.006890E-001
  2.699021E+002,  2.752903E+002,  0.000000E+000, -1.096098E+002, -2.865115E+001, -4.228496E-002,  5.009233E-001
  1.737025E+002,  1.436691E+002,  0.000000E+000,  1.021659E+002, -1.130122E+000,  6.004573E+000,  5.001683E-001
  2.690421E+002,  2.995655E+002,  0.000000E+000, -1.062442E+002, -2.849034E+001,  1.005549E+000,  5.005014E-001
  1.716305E+002,  1.555409E+002,  0.000000E+000,  9.595802E+001, -3.376007E+000,  8.646057E+000,  5.001088E-001
  2.680637E+002,  3.132302E+002,  0.000000E+000, -1.038854E+002, -2.785063E+001,  1.671020E+000,  5.003221E-001
  2.709742E+002,  3.157019E+002,  0.000000E+000, -1.014175E+002, -2.718425E+001,  2.214603E+000,  5.005486E-001
  2.746729E+002,  3.166148E+002,  0.000000E+000, -9.829306E+001, -2.587645E+001,  3.432068E+000,  5.007756E-001
  2.787920E+002,  3.166224E+002,  0.000000E+000, -9.481837E+001, -2.417738E+001,  4.897230E+000,  5.003958E-001
  2.830890E+002,  3.164953E+002,  0.000000E+000, -9.109617E+001, -2.234403E+001,  6.376693E+000,  5.007282E-001
  2.873601E+002,  3.162526E+002,  0.000000E+000, -8.697950E+001, -2.036953E+001,  7.805415E+000,  5.010418E-001
  2.911471E+002,  3.149559E+002,  0.000000E+000, -8.187986E+001, -1.806839E+001,  9.143684E+000,  5.005438E-001
  2.941938E+002,  3.124604E+002,  0.000000E+000, -7.599594E+001, -1.530061E+001,  1.064943E+001,  5.005603E-001
  2.951715E+002,  3.082714E+002,  0.000000E+000, -6.871691E+001, -1.254694E+001,  1.219322E+001,  5.003625E-001
  2.893235E+002,  2.983570E+002,  0.000000E+000, -5.555346E+001, -1.099123E+001,  1.262652E+001,  5.003191E-001
  2.766494E+002,  2.831856E+002,  0.000000E+000, -3.736106E+001, -1.035601E+001,  1.191224E+001,  5.003906E-001
  2.633551E+002,  2.684106E+002,  0.000000E+000, -2.003415E+001, -9.495630E+000,  1.135342E+001,  5.004531E-001
  2.497327E+002,  2.537739E+002,  0.000000E+000, -3.501661E+000, -8.650119E+000,  1.086172E+001,  5.006540E-001
  2.358391E+002,  2.392703E+002,  0.000000E+000,  1.236975E+001, -7.862272E+000,  1.044177E+001,  5.000923E-001
  2.224073E+002,  2.255658E+002,  0.000000E+000,  2.721578E+001, -7.108871E+000,  1.014483E+001,  5.005179E-001
  2.096173E+002,  2.125582E+002,  0.000000E+000,  4.121685E+001, -6.383700E+000,  9.831473E+000,  5.006875E-001
  1.974679E+002,  2.003738E+002,  0.000000E+000,  5.431081E+001, -5.706690E+000,  9.581915E+000,  5.006343E-001
  1.859680E+002,  1.889356E+002,  0.000000E+000,  6.660049E+001, -5.080631E+000,  9.358743E+000,  5.002996E-001
  1.750784E+002,  1.781706E+002,  0.000000E+000,  7.815247E+001, -4.498444E+000,  9.142710E+000,  5.005535E-001
  1.648391E+002,  1.679998E+002,  0.000000E+000,  8.896920E+001, -3.995701E+000,  8.980786E+000,  5.006963E-001
  1.600543E+002, -1.678616E+002,  0.000000E+000, -9.710219E+001,  3.014445E+000, -6.915997E+000,  5.009782E-001
  1.610831E+002, -1.706267E+002,  0.000000E+000, -9.550903E+001,  1.830462E+000, -8.687536E+000,  5.001259E-001
  1.622959E+002, -1.740298E+002,  0.000000E+000, -9.268430E+001,  5.107689E-001, -1.061084E+001,  5.000222E-001
  1.635497E+002, -1.776975E+002,  0.000000E+000, -8.863026E+001, -6.441559E-001, -1.256763E+001,  5.010463E-001
  1.653978E+002, -1.814500E+002,  0.000000E+000, -8.107145E+001, -5.985086E-001, -1.430660E+001,  5.006352E-001
  1.684529E+002, -1.851434E+002,  0.000000E+000, -6.853903E+001,  1.144660E+000, -1.586522E+001,  5.008601E-001
  1.720731E+002, -1.888439E+002,  0.000000E+000, -5.410668E+001,  3.404834E+000, -1.746785E+001,  5.009048E-001
  1.757075E+002, -1.927073E+002,  0.000000E+000, -3.903800E+001,  5.773677E+000, -1.907743E+001,  5.006054E-001
  1.790363E+002, -1.967127E+002,  0.000000E+000, -2.347805E+001,  8.353903E+000, -2.068211E+001,  5.001777E-001
  1.816790E+002, -1.981788E+002,  0.000000E+000, -1.048256E+001,  1.088425E+001, -2.020924E+001,  5.004689E-001
  1.835279E+002, -1.949672E+002,  0.000000E+000, -3.967030E+000,  1.420656E+001, -1.571479E+001,  5.008721E-001
  1.818085E+002, -1.916005E+002,  0.000000E+000,  4.957223E+000,  1.599902E+001, -1.157122E+001,  5.000495E-001
  1.750008E+002, -1.887416E+002,  0.000000E+000,  1.639409E+001,  1.482713E+001, -7.916121E+000,  5.010648E-001
  1.685435E+002, -1.871979E+002,  0.000000E+000,  2.469488E+001,  1.249873E+001, -6.603475E+000,  5.005260E-001
  1.628599E+002, -1.865470E+002,  0.000000E+000,  3.022586E+001,  9.498819E+000, -7.043619E+000,  5.007110E-001
  1.567038E+002, -1.853986E+002,  0.000000E+000,  3.544256E+001,  6.180914E+000, -8.057121E+000,  5.006540E-001
  1.504574E+002, -1.838831E+002,  0.000000E+000,  4.023601E+001,  2.905422E+000, -9.369341E+000,  5.008778E-001
  1.441589E+002, -1.818090E+002,  0.000000E+000,  4.443010E+001, -3.702007E-002, -1.071890E+001,  5.000711E-001
  1.368008E+002, -1.773334E+002,  0.000000E+000,  4.931151E+001, -1.897676E+000, -1.176155E+001,  5.001873E-001
  1.281629E+002, -1.691626E+002,  0.000000E+000,  5.545079E+001, -2.505376E+000, -1.281600E+001,  5.007613E-001
  1.761329E+002, -1.497655E+002,  0.000000E+000, -9.801485E+001,  1.800582E+000, -4.295662E+000,  5.001791E-001
  1.413517E+002, -1.455897E+002,  0.000000E+000,  5.910938E+001, -2.751482E+000, -1.197804E+001,  5.006837E-001
  1.930910E+002, -1.300386E+002,  0.000000E+000, -9.910739E+001,  5.028316E-001, -1.618008E+000,  5.004819E-001
  1.552618E+002, -1.203913E+002,  0.000000E+000,  6.305288E+001, -3.025770E+000, -1.107659E+001,  5.002347E-001
  2.103918E+002, -1.073003E+002,  0.000000E+000, -1.008462E+002, -9.290620E-001,  8.158661E-001,  5.009648E-001
  1.698566E+002, -9.369178E+001,  0.000000E+000,  6.720238E+001, -3.321238E+000, -1.015279E+001,  5.005886E-001
  2.270490E+002, -8.074128E+001,  0.000000E+000, -1.035785E+002, -2.469013E+000,  2.620113E+000,  5.003078E-001
  1.850936E+002, -6.519344E+001,  0.000000E+000,  7.170804E+001, -3.554228E+000, -9.200824E+000,  5.000039E-001
  2.425153E+002, -5.075103E+001,  0.000000E+000, -1.072043E+002, -3.965077E+000,  3.775955E+000,  5.006316E-001
  2.000056E+002, -3.552633E+001,  0.000000E+000,  7.660209E+001, -3.520081E+000, -8.366245E+000,  5.001355E-001
  2.583198E+002, -2.015507E+001,  0.000000E+000, -1.107811E+002, -6.047143E+000,  4.233277E+000,  5.008487E-001
  2.064137E+002, -9.706242E+000,  0.000000E+000,  8.252401E+001, -1.641046E+000, -7.749299E+000,  5.006927E-001
  2.742176E+002,  7.506594E+000,  0.000000E+000, -1.135961E+002, -9.552703E+000,  2.797209E+000,  5.005932E-001
  2.058709E+002,  1.179771E+001,  0.000000E+000,  8.910332E+001,  7.627561E-001, -7.176767E+000,  5.001008E-001
  2.884044E+002,  3.483663E+001,  0.000000E+000, -1.164463E+002, -1.306108E+001,  9.662174E-001,  5.010306E-001
  2.046524E+002,  3.342659E+001,  0.000000E+000,  9.581492E+001,  3.154097E+000, -6.599977E+000,  5.000501E-001
  2.865741E+002,  4.979658E+001,  0.000000E+000, -1.190543E+002, -1.360441E+001, -1.133496E+000,  5.008713E-001
  2.021504E+002,  5.513425E+001,  0.000000E+000,  1.023853E+002,  5.582807E+000, -6.209451E+000,  5.002533E-001
  2.846682E+002,  6.932660E+001,  0.000000E+000, -1.204402E+002, -1.569816E+001, -2.574108E+000,  5.001160E-001
  1.995033E+002,  7.709090E+001,  0.000000E+000,  1.086769E+002,  8.225169E+000, -5.898273E+000,  5.003826E-001
  2.841139E+002,  9.730549E+001,  0.000000E+000, -1.209391E+002, -2.073121E+001, -1.578675E+000,  5.004045E-001
  1.977456E+002,  8.802270E+001,  0.000000E+000,  1.110786E+002,  8.893336E+000, -5.923111E+000,  5.002825E-001
  2.832745E+002,  1.263697E+002,  0.000000E+000, -1.203231E+002, -2.401287E+001, -7.248517E-001,  5.006411E-001
  1.965774E+002,  9.443782E+001,  0.000000E+000,  1.117756E+002,  8.648144E+000, -6.165334E+000,  5.007812E-001
  2.822118E+002,  1.555826E+002,  0.000000E+000, -1.184294E+002, -2.523721E+001,  1.179176E-002,  5.006359E-001
  1.945715E+002,  1.006033E+002,  0.000000E+000,  1.122939E+002,  8.042041E+000, -5.746620E+000,  5.001304E-001
  2.808176E+002,  1.842815E+002,  0.000000E+000, -1.160235E+002, -2.578131E+001,  7.595508E-001,  5.009230E-001
  1.920731E+002,  1.080263E+002,  0.000000E+000,  1.116647E+002,  7.282229E+000, -4.315938E+000,  5.000521E-001
  2.795558E+002,  2.120980E+002,  0.000000E+000, -1.130426E+002, -2.597890E+001,  1.485548E+000,  5.004646E-001
  1.901706E+002,  1.193585E+002,  0.000000E+000,  1.076655E+002,  5.533365E+000, -1.364403E+000,  5.001041E-001
  2.784736E+002,  2.387441E+002,  0.000000E+000, -1.098958E+002, -2.610824E+001,  2.236448E+000,  5.001133E-001
  1.895417E+002,  1.325488E+002,  0.000000E+000,  1.012377E+002,  2.769865E+000,  1.717595E+000,  5.006897E-001
  2.773895E+002,  2.639251E+002,  0.000000E+000, -1.068135E+002, -2.618664E+001,  3.040867E+000,  5.004991E-001
  1.887908E+002,  1.447387E+002,  0.000000E+000,  9.513463E+001,  2.514937E-001,  4.363995E+000,  5.004714E-001
  2.762187E+002,  2.876438E+002,  0.000000E+000, -1.038457E+002, -2.624658E+001,  3.778833E+000,  5.001872E-001
  1.878952E+002,  1.557343E+002,  0.000000E+000,  8.952135E+001, -2.082077E+000,  6.766225E+000,  5.007516E-001
  2.746425E+002,  3.073394E+002,  0.000000E+000, -1.014539E+002, -2.636920E+001,  4.099314E+000,  5.007124E-001
  2.785411E+002,  3.095135E+002,  0.000000E+000, -9.810922E+001, -2.479603E+001,  5.797097E+000,  5.007834E-001
  2.824852E+002,  3.103462E+002,  0.000000E+000, -9.474750E+001, -2.333821E+001,  7.268683E+000,  5.002351E-001
  2.866861E+002,  3.107216E+002,  0.000000E+000, -9.130505E+001, -2.171839E+001,  8.852821E+000,  5.007276E-001
  2.911217E+002,  3.108237E+002,  0.000000E+000, -8.766316E+001, -1.996078E+001,  1.049857E+001,  5.010553E-001
  2.953525E+002,  3.100780E+002,  0.000000E+000, -8.335280E+001, -1.789461E+001,  1.212819E+001,  5.004686E-001
  2.993658E+002,  3.084052E+002,  0.000000E+000, -7.830070E+001, -1.555057E+001,  1.380801E+001,  5.005854E-001
  3.025334E+002,  3.056523E+002,  0.000000E+000, -7.268239E+001, -1.287847E+001,  1.551090E+001,  5.002130E-001
  3.040502E+002,  3.011074E+002,  0.000000E+000, -6.558833E+001, -1.045838E+001,  1.688097E+001,  5.003117E-001
  3.002543E+002,  2.910432E+002,  0.000000E+000, -5.313522E+001, -9.370201E+000,  1.654351E+001,  5.002776E-001
  2.919482E+002,  2.766673E+002,  0.000000E+000, -3.681871E+001, -9.304141E+000,  1.484080E+001,  5.007019E-001
  2.821001E+002,  2.624469E+002,  0.000000E+000, -2.090496E+001, -8.981135E+000,  1.337962E+001,  5.006653E-001
  2.704709E+002,  2.485429E+002,  0.000000E+000, -5.440073E+000, -8.471883E+000,  1.224529E+001,  5.001166E-001
  2.572179E+002,  2.346786E+002,  0.000000E+000,  9.735625E+000, -7.824194E+000,  1.145567E+001,  5.002207E-001
  2.438856E+002,  2.215402E+002,  0.000000E+000,  2.405470E+001, -7.092241E+000,  1.088317E+001,  5.001364E-001
  2.310504E+002,  2.091146E+002,  0.000000E+000,  3.756988E+001, -6.407352E+000,  1.038820E+001,  5.002903E-001
  2.189138E+002,  1.974106E+002,  0.000000E+000,  5.026913E+001, -5.747372E+000,  9.898173E+000,  5.002834E-001
  2.073086E+002,  1.864187E+002,  0.000000E+000,  6.222502E+001, -5.107806E+000,  9.464211E+000,  5.002636E-001
  1.961093E+002,  1.760961E+002,  0.000000E+000,  7.351111E+001, -4.500123E+000,  9.146362E+000,  5.002153E-001
  1.853830E+002,  1.662625E+002,  0.000000E+000,  8.416755E+001, -3.923362E+000,  8.863231E+000,  5.001056E-001
  1.777881E+002, -1.519106E+002,  0.000000E+000, -9.652183E+001,  5.277976E-001, -6.005292E+000,  5.005220E-001
  1.794313E+002, -1.541666E+002,  0.000000E+000, -9.464268E+001, -7.710037E-001, -7.748756E+000,  5.010194E-001
  1.812947E+002, -1.569363E+002,  0.000000E+000, -9.157816E+001, -2.118927E+000, -9.553640E+000,  5.010415E-001
  1.833369E+002, -1.598119E+002,  0.000000E+000, -8.681676E+001, -3.002916E+000, -1.125598E+001,  5.005184E-001
  1.861769E+002, -1.627271E+002,  0.000000E+000, -7.795927E+001, -2.483716E+000, -1.269747E+001,  5.000949E-001
  1.898480E+002, -1.656900E+002,  0.000000E+000, -6.501818E+001, -5.437435E-001, -1.409639E+001,  5.005728E-001
  1.936949E+002, -1.688168E+002,  0.000000E+000, -5.124885E+001,  1.572054E+000, -1.556912E+001,  5.000383E-001
  1.973262E+002, -1.721038E+002,  0.000000E+000, -3.702824E+001,  3.841437E+000, -1.706799E+001,  5.006611E-001
  2.007919E+002, -1.754505E+002,  0.000000E+000, -2.225616E+001,  6.234696E+000, -1.853058E+001,  5.007544E-001
  2.035181E+002, -1.769500E+002,  0.000000E+000, -9.363910E+000,  8.537095E+000, -1.833125E+001,  5.011139E-001
  2.053481E+002, -1.739511E+002,  0.000000E+000, -3.061189E+000,  1.168011E+001, -1.409586E+001,  5.008022E-001
  2.061078E+002, -1.706239E+002,  0.000000E+000,  3.700068E+000,  1.470373E+001, -1.002009E+001,  5.007895E-001
  2.000734E+002, -1.682638E+002,  0.000000E+000,  1.413895E+001,  1.416468E+001, -6.436153E+000,  5.009359E-001
  1.935038E+002, -1.670881E+002,  0.000000E+000,  2.239820E+001,  1.204119E+001, -4.952030E+000,  5.009941E-001
  1.875661E+002, -1.668255E+002,  0.000000E+000,  2.805546E+001,  9.313303E+000, -5.107880E+000,  5.001290E-001
  1.816104E+002, -1.663194E+002,  0.000000E+000,  3.302170E+001,  6.256353E+000, -5.984488E+000,  5.010175E-001
  1.750893E+002, -1.654376E+002,  0.000000E+000,  3.776053E+001,  3.095798E+000, -7.203469E+000,  5.004412E-001
  1.683838E+002, -1.643196E+002,  0.000000E+000,  4.192174E+001,  1.871914E-001, -8.576340E+000,  5.001338E-001
  1.608978E+002, -1.615834E+002,  0.000000E+000,  4.635246E+001, -1.897915E+000, -9.718831E+000,  5.003764E-001
  1.519963E+002, -1.553403E+002,  0.000000E+000,  5.202523E+001, -2.769840E+000, -1.076952E+001,  5.000019E-001
  1.938338E+002, -1.339618E+002,  0.000000E+000, -9.739588E+001, -7.283963E-001, -3.445146E+000,  5.000112E-001
  1.960869E+002, -1.354750E+002,  0.000000E+000, -9.585321E+001, -2.102450E+000, -5.132441E+000,  5.004536E-001
  1.986556E+002, -1.374681E+002,  0.000000E+000, -9.320651E+001, -3.606157E+000, -6.976730E+000,  5.011480E-001
  2.015538E+002, -1.398101E+002,  0.000000E+000, -8.905183E+001, -4.983737E+000, -8.754547E+000,  5.002721E-001
  2.050672E+002, -1.422026E+002,  0.000000E+000, -8.102876E+001, -4.997147E+000, -1.026223E+001,  5.005747E-001
  2.092467E+002, -1.448024E+002,  0.000000E+000, -6.819622E+001, -3.257361E+000, -1.160481E+001,  5.006583E-001
  2.136672E+002, -1.476597E+002,  0.000000E+000, -5.384662E+001, -1.117820E+000, -1.311296E+001,  5.008353E-001
  2.177388E+002, -1.507015E+002,  0.000000E+000, -3.903053E+001,  1.229146E+000, -1.463340E+001,  5.007322E-001
  2.216737E+002, -1.538040E+002,  0.000000E+000, -2.357033E+001,  3.699407E+000, -1.610075E+001,  5.004944E-001
  2.242443E+002, -1.563671E+002,  0.000000E+000, -8.970949E+000,  6.402702E+000, -1.632960E+001,  5.007575E-001
  2.262731E+002, -1.534364E+002,  0.000000E+000, -1.736524E+000,  9.631085E+000, -1.225997E+001,  5.002234E-001
  2.281298E+002, -1.495667E+002,  0.000000E+000,  4.840562E+000,  1.297635E+001, -7.856315E+000,  5.002379E-001
  2.233372E+002, -1.470649E+002,  0.000000E+000,  1.465927E+001,  1.301148E+001, -4.218216E+000,  5.001321E-001
  2.162323E+002, -1.464851E+002,  0.000000E+000,  2.272266E+001,  1.062113E+001, -3.094449E+000,  5.007303E-001
  2.096029E+002, -1.467521E+002,  0.000000E+000,  2.834974E+001,  7.617079E+000, -3.532086E+000,  5.004084E-001
  2.024762E+002, -1.466186E+002,  0.000000E+000,  3.359238E+001,  4.286976E+000, -4.601763E+000,  5.008412E-001
  1.948022E+002, -1.462390E+002,  0.000000E+000,  3.840332E+001,  1.060397E+000, -6.019332E+000,  5.007777E-001
  1.866357E+002, -1.451294E+002,  0.000000E+000,  4.281943E+001, -1.628290E+000, -7.396748E+000,  5.002842E-001
  1.767836E+002, -1.405002E+002,  0.000000E+000,  4.853118E+001, -2.952627E+000, -8.583061E+000,  5.003869E-001
  1.656783E+002, -1.325623E+002,  0.000000E+000,  5.529580E+001, -3.168007E+000, -9.805819E+000,  5.000799E-001
  2.110033E+002, -1.148218E+002,  0.000000E+000, -9.824519E+001, -2.043863E+000, -7.198193E-001,  5.006081E-001
  2.140089E+002, -1.155299E+002,  0.000000E+000, -9.683666E+001, -3.516770E+000, -2.300099E+000,  5.003793E-001
  2.173196E+002, -1.165487E+002,  0.000000E+000, -9.474146E+001, -5.176625E+000, -4.136634E+000,  5.002665E-001
  2.210683E+002, -1.180842E+002,  0.000000E+000, -9.103075E+001, -6.867918E+000, -5.994996E+000,  5.007908E-001
  2.252989E+002, -1.199583E+002,  0.000000E+000, -8.420874E+001, -7.681655E+000, -7.588329E+000,  5.001358E-001
  2.302352E+002, -1.220618E+002,  0.000000E+000, -7.161753E+001, -6.275086E+000, -8.893954E+000,  5.001499E-001
  2.351877E+002, -1.246378E+002,  0.000000E+000, -5.672977E+001, -4.165935E+000, -1.034230E+001,  5.000276E-001
  2.398330E+002, -1.273657E+002,  0.000000E+000, -4.125459E+001, -1.763920E+000, -1.186860E+001,  5.003567E-001
  2.422359E+002, -1.314075E+002,  0.000000E+000, -2.545884E+001,  1.623721E+000, -1.274552E+001,  5.003028E-001
  2.412922E+002, -1.372376E+002,  0.000000E+000, -1.001414E+001,  5.950588E+000, -1.249790E+001,  5.005746E-001
  2.422559E+002, -1.367814E+002,  0.000000E+000,  1.851919E-001,  9.989774E+000, -9.836660E+000,  5.003919E-001
  2.456011E+002, -1.316433E+002,  0.000000E+000,  6.929002E+000,  1.312417E+001, -5.206553E+000,  5.011582E-001
  2.450535E+002, -1.264272E+002,  0.000000E+000,  1.575303E+001,  1.248464E+001, -1.743503E+000,  5.004990E-001
  2.402295E+002, -1.245553E+002,  0.000000E+000,  2.303830E+001,  9.230857E+000, -1.075033E+000,  5.009533E-001
  2.334787E+002, -1.248005E+002,  0.000000E+000,  2.861617E+001,  5.705244E+000, -1.786943E+000,  5.005124E-001
  2.250151E+002, -1.252671E+002,  0.000000E+000,  3.399060E+001,  2.048940E+000, -3.099653E+000,  5.005170E-001
  2.159689E+002, -1.253049E+002,  0.000000E+000,  3.893363E+001, -1.240452E+000, -4.667866E+000,  5.008598E-001
  2.052870E+002, -1.229650E+002,  0.000000E+000,  4.449714E+001, -3.251294E+000, -6.014044E+000,  5.001097E-001
  1.926269E+002, -1.162666E+002,  0.000000E+000,  5.163931E+001, -3.676201E+000, -7.405530E+000,  5.004564E-001
  1.797872E+002, -1.079265E+002,  0.000000E+000,  5.894368E+001, -3.471963E+000, -8.840222E+000,  5.003587E-001
  2.284632E+002, -9.321989E+001,  0.000000E+000, -9.964509E+001, -3.543484E+000,  1.817930E+000,  5.005765E-001
  2.330017E+002, -9.442197E+001,  0.000000E+000, -9.772890E+001, -5.109856E+000,  7.071122E-001,  5.006790E-001
  2.370793E+002, -9.443831E+001,  0.000000E+000, -9.601265E+001, -6.934334E+000, -1.042398E+000,  5.004805E-001
  2.416835E+002, -9.493955E+001,  0.000000E+000, -9.286119E+001, -8.909866E+000, -2.936398E+000,  5.011535E-001
  2.466594E+002, -9.614463E+001,  0.000000E+000, -8.712187E+001, -1.048234E+001, -4.643953E+000,  5.003350E-001
  2.521257E+002, -9.803532E+001,  0.000000E+000, -7.526077E+001, -9.664446E+000, -6.010375E+000,  5.009405E-001
  2.577078E+002, -1.001781E+002,  0.000000E+000, -5.987246E+001, -7.474479E+000, -7.346280E+000,  5.006671E-001
  2.593673E+002, -1.048545E+002,  0.000000E+000, -4.441910E+001, -3.591862E+000, -7.896715E+000,  5.007724E-001
  2.579929E+002, -1.115714E+002,  0.000000E+000, -2.883091E+001,  1.314808E+000, -7.844691E+000,  5.004827E-001
  2.549042E+002, -1.194753E+002,  0.000000E+000, -1.274097E+001,  6.423885E+000, -7.456125E+000,  5.000786E-001
  2.527974E+002, -1.242899E+002,  0.000000E+000,  1.720800E+000,  1.141214E+001, -6.280116E+000,  5.002197E-001
  2.559157E+002, -1.200119E+002,  0.000000E+000,  9.734223E+000,  1.499829E+001, -1.978545E+000,  5.002179E-001
  2.556073E+002, -1.145469E+002,  0.000000E+000,  1.841422E+001,  1.376717E+001,  1.032365E+000,  5.004003E-001
  2.513881E+002, -1.125748E+002,  0.000000E+000,  2.468857E+001,  9.917048E+000,  8.782444E-001,  5.003118E-001
  2.460716E+002, -1.114966E+002,  0.000000E+000,  2.962169E+001,  5.624122E+000, -4.863988E-001,  5.009410E-001
  2.394240E+002, -1.098046E+002,  0.000000E+000,  3.489589E+001,  1.306639E+000, -1.987763E+000,  5.005122E-001
  2.317420E+002, -1.064823E+002,  0.000000E+000,  4.028352E+001, -2.097448E+000, -3.438781E+000,  5.006537E-001
  2.213067E+002, -9.858318E+001,  0.000000E+000,  4.748652E+001, -3.725910E+000, -4.768532E+000,  5.006431E-001
  2.083386E+002, -8.920611E+001,  0.000000E+000,  5.549317E+001, -4.023693E+000, -6.291334E+000,  5.003811E-001
  1.945746E+002, -8.180571E+001,  0.000000E+000,  6.283839E+001, -3.811044E+000, -7.821030E+000,  5.003697E-001
  2.456989E+002, -6.899491E+001,  0.000000E+000, -1.017011E+002, -5.252820E+000,  4.102253E+000,  5.003534E-001
  2.524815E+002, -7.105685E+001,  0.000000E+000, -9.907052E+001, -6.970394E+000,  3.645460E+000,  5.004953E-001
  2.578515E+002, -7.121609E+001,  0.000000E+000, -9.707022E+001, -8.821124E+000,  2.309354E+000,  5.001694E-001
  2.629512E+002, -7.070725E+001,  0.000000E+000, -9.460579E+001, -1.095766E+001,  4.301257E-001,  5.003127E-001
  2.685584E+002, -7.102759E+001,  0.000000E+000, -8.988734E+001, -1.300164E+001, -1.397483E+000,  5.006371E-001
  2.744294E+002, -7.291463E+001,  0.000000E+000, -7.928444E+001, -1.304850E+001, -2.741402E+000,  5.008966E-001
  2.754502E+002, -7.823340E+001,  0.000000E+000, -6.419100E+001, -8.949310E+000, -2.881148E+000,  5.010827E-001
  2.740529E+002, -8.510544E+001,  0.000000E+000, -4.880401E+001, -3.857312E+000, -2.560571E+000,  5.007585E-001
  2.707338E+002, -9.351738E+001,  0.000000E+000, -3.318236E+001,  1.517479E+000, -2.050821E+000,  5.000083E-001
  2.670057E+002, -1.019353E+002,  0.000000E+000, -1.636627E+001,  6.962131E+000, -1.475988E+000,  5.007486E-001
  2.630633E+002, -1.101079E+002,  0.000000E+000,  6.754075E-001,  1.247513E+001, -8.145537E-001,  5.001084E-001
  2.621432E+002, -1.121304E+002,  0.000000E+000,  1.253536E+001,  1.701189E+001,  1.116216E+000,  5.007295E-001
  2.603839E+002, -1.089000E+002,  0.000000E+000,  1.977788E+001,  1.482678E+001,  2.590989E+000,  5.002529E-001
  2.555525E+002, -1.077206E+002,  0.000000E+000,  2.524637E+001,  1.039144E+001,  1.493664E+000,  5.002904E-001
  2.494542E+002, -1.057337E+002,  0.000000E+000,  3.077179E+001,  5.697098E+000, -1.066685E-001,  5.006732E-001
  2.427553E+002, -1.012030E+002,  0.000000E+000,  3.699988E+001,  1.705074E+000, -1.408124E+000,  5.006472E-001
  2.353544E+002, -8.963652E+001,  0.000000E+000,  4.459827E+001, -3.773592E-001, -2.713750E+000,  5.006780E-001
  2.274624E+002, -7.581865E+001,  0.000000E+000,  5.265393E+001, -1.727953E+000, -4.142019E+000,  5.006565E-001
  2.186197E+002, -6.426606E+001,  0.000000E+000,  6.013910E+001, -2.942663E+000, -5.551331E+000,  5.004375E-001
  2.082058E+002, -5.514572E+001,  0.000000E+000,  6.712326E+001, -3.677630E+000, -6.956611E+000,  5.008240E-001
  2.616590E+002, -4.108845E+001,  0.000000E+000, -1.047675E+002, -6.883516E+000,  5.661996E+000,  5.010291E-001
  2.713540E+002, -4.512556E+001,  0.000000E+000, -1.011473E+002, -8.843935E+000,  6.392344E+000,  5.009547E-001
  2.789659E+002, -4.621311E+001,  0.000000E+000, -9.844263E+001, -1.078845E+001,  5.816843E+000,  5.000417E-001
  2.853479E+002, -4.514387E+001,  0.000000E+000, -9.602282E+001, -1.291826E+001,  4.242141E+000,  5.002947E-001
  2.893345E+002, -4.571573E+001,  0.000000E+000, -9.245740E+001, -1.427287E+001,  2.905215E+000,  5.011615E-001
  2.910424E+002, -5.002902E+001,  0.000000E+000, -8.445253E+001, -1.361478E+001,  2.386040E+000,  5.005114E-001
  2.894577E+002, -5.826856E+001,  0.000000E+000, -6.984138E+001, -9.227254E+000,  2.755104E+000,  5.002164E-001
  2.863923E+002, -6.665252E+001,  0.000000E+000, -5.418805E+001, -3.734313E+000,  3.483344E+000,  5.003238E-001
  2.828650E+002, -7.524472E+001,  0.000000E+000, -3.798507E+001,  1.927169E+000,  4.422294E+000,  5.007982E-001
  2.792540E+002, -8.360824E+001,  0.000000E+000, -2.042247E+001,  7.574800E+000,  5.264548E+000,  5.009245E-001
  2.742677E+002, -9.347175E+001,  0.000000E+000, -2.825740E+000,  1.293880E+001,  5.388461E+000,  5.006986E-001
  2.679367E+002, -1.039697E+002,  0.000000E+000,  1.221732E+001,  1.730878E+001,  3.848218E+000,  5.000894E-001
  2.642190E+002, -1.044338E+002,  0.000000E+000,  2.039513E+001,  1.578771E+001,  3.382751E+000,  5.005223E-001
  2.586893E+002, -1.025219E+002,  0.000000E+000,  2.624210E+001,  1.053568E+001,  1.969868E+000,  5.005431E-001
  2.520083E+002, -9.740541E+001,  0.000000E+000,  3.308080E+001,  6.069665E+000,  6.553040E-001,  5.003495E-001
  2.437266E+002, -8.427948E+001,  0.000000E+000,  4.220167E+001,  3.679402E+000, -7.120587E-001,  5.003721E-001
  2.354971E+002, -6.948945E+001,  0.000000E+000,  5.082506E+001,  2.072432E+000, -2.306428E+000,  5.003685E-001
  2.278933E+002, -5.593526E+001,  0.000000E+000,  5.869079E+001,  6.458220E-001, -3.776846E+000,  5.002555E-001
  2.209064E+002, -4.357122E+001,  0.000000E+000,  6.582570E+001, -6.032878E-001, -5.218859E+000,  5.005025E-001
  2.138691E+002, -3.255538E+001,  0.000000E+000,  7.235308E+001, -1.752657E+000, -6.681666E+000,  5.000464E-001
  2.763420E+002, -1.166635E+001,  0.000000E+000, -1.083395E+002, -8.559164E+000,  6.498051E+000,  5.009719E-001
  2.884097E+002, -1.509758E+001,  0.000000E+000, -1.044524E+002, -1.060900E+001,  8.235560E+000,  5.000060E-001
  2.980726E+002, -1.891824E+001,  0.000000E+000, -1.007316E+002, -1.218441E+001,  9.417890E+000,  5.006572E-001
  3.020986E+002, -2.199651E+001,  0.000000E+000, -9.792279E+001, -1.240026E+001,  9.783631E+000,  5.010206E-001
  3.042527E+002, -2.413582E+001,  0.000000E+000, -9.521519E+001, -1.285274E+001,  9.089785E+000,  5.006663E-001
  3.043207E+002, -2.886497E+001,  0.000000E+000, -9.008842E+001, -1.297255E+001,  8.552176E+000,  5.000201E-001
  3.022647E+002, -3.760321E+001,  0.000000E+000, -7.673687E+001, -9.014121E+000,  9.213168E+000,  5.004671E-001
  2.990272E+002, -4.719641E+001,  0.000000E+000, -6.028304E+001, -3.382783E+000,  1.029762E+001,  5.012215E-001
  2.955602E+002, -5.574268E+001,  0.000000E+000, -4.300547E+001,  2.405410E+000,  1.137826E+001,  5.004245E-001
  2.911484E+002, -6.519324E+001,  0.000000E+000, -2.516928E+001,  7.831556E+000,  1.174120E+001,  5.004725E-001
  2.839697E+002, -7.812812E+001,  0.000000E+000, -8.049223E+000,  1.235033E+001,  1.006556E+001,  5.002452E-001
  2.748899E+002, -9.319966E+001,  0.000000E+000,  8.836596E+000,  1.622009E+001,  7.005872E+000,  5.007403E-001
  2.675414E+002, -9.959475E+001,  0.000000E+000,  2.113100E+001,  1.623514E+001,  4.105416E+000,  5.008303E-001
  2.607096E+002, -9.374303E+001,  0.000000E+000,  2.887577E+001,  1.133691E+001,  2.608420E+000,  5.000287E-001
  2.521449E+002, -7.847168E+001,  0.000000E+000,  3.920024E+001,  8.445327E+000,  1.263724E+000,  5.000570E-001
  2.437058E+002, -6.275048E+001,  0.000000E+000,  4.878524E+001,  6.315107E+000, -2.449793E-001,  5.008403E-001
  2.355202E+002, -4.844682E+001,  0.000000E+000,  5.729432E+001,  4.652153E+000, -1.888475E+000,  5.002121E-001
  2.278175E+002, -3.569718E+001,  0.000000E+000,  6.494375E+001,  3.152994E+000, -3.509938E+000,  5.009033E-001
  2.205824E+002, -2.391337E+001,  0.000000E+000,  7.193669E+001,  1.795525E+000, -5.061977E+000,  5.008191E-001
  2.137085E+002, -1.288608E+001,  0.000000E+000,  7.836990E+001,  5.442104E-001, -6.340756E+000,  5.006303E-001
  2.918425E+002,  1.562659E+001,  0.000000E+000, -1.111536E+002, -1.173127E+001,  5.476147E+000,  5.002126E-001
  3.017985E+002,  1.447165E+001,  0.000000E+000, -1.082230E+002, -1.204495E+001,  8.991951E+000,  5.006204E-001
  3.081108E+002,  8.832610E+000,  0.000000E+000, -1.049956E+002, -1.153848E+001,  1.249849E+001,  5.008504E-001
  3.126795E+002,  8.720689E-001,  0.000000E+000, -1.011958E+002, -1.113798E+001,  1.504812E+001,  5.010859E-001
  3.155114E+002, -4.174377E+000,  0.000000E+000, -9.809803E+001, -1.102079E+001,  1.596996E+001,  5.007613E-001
  3.166447E+002, -8.012167E+000,  0.000000E+000, -9.471082E+001, -1.128792E+001,  1.575032E+001,  5.009566E-001
  3.153924E+002, -1.555045E+001,  0.000000E+000, -8.434727E+001, -8.616343E+000,  1.638764E+001,  5.002492E-001
  3.123829E+002, -2.534277E+001,  0.000000E+000, -6.700147E+001, -2.796916E+000,  1.751125E+001,  5.011436E-001
  3.076575E+002, -3.621737E+001,  0.000000E+000, -4.916270E+001,  2.438473E+000,  1.748241E+001,  5.006044E-001
  3.007650E+002, -4.934229E+001,  0.000000E+000, -3.157733E+001,  6.806751E+000,  1.581949E+001,  5.003309E-001
  2.920369E+002, -6.445907E+001,  0.000000E+000, -1.460711E+001,  1.065227E+001,  1.295123E+001,  5.011500E-001
  2.823735E+002, -7.925751E+001,  0.000000E+000,  3.155980E+000,  1.391196E+001,  9.568952E+000,  5.006923E-001
  2.706617E+002, -8.652060E+001,  0.000000E+000,  2.227227E+001,  1.585123E+001,  5.997868E+000,  5.004041E-001
  2.601986E+002, -7.267229E+001,  0.000000E+000,  3.582884E+001,  1.407453E+001,  3.534713E+000,  5.002410E-001
  2.513436E+002, -5.576118E+001,  0.000000E+000,  4.649284E+001,  1.148354E+001,  1.709614E+000,  5.003091E-001
  2.427557E+002, -4.056913E+001,  0.000000E+000,  5.576930E+001,  9.264151E+000,  3.159914E-002,  5.009289E-001
  2.346858E+002, -2.690221E+001,  0.000000E+000,  6.403927E+001,  7.377470E+000, -1.650274E+000,  5.002348E-001
  2.271610E+002, -1.443884E+001,  0.000000E+000,  7.148464E+001,  5.697519E+000, -3.228082E+000,  5.002797E-001
  2.198239E+002, -3.160154E+000,  0.000000E+000,  7.831090E+001,  4.179406E+000, -4.566997E+000,  5.002037E-001
  2.127688E+002,  7.100020E+000,  0.000000E+000,  8.455009E+001,  2.798317E+000, -5.780740E+000,  5.000364E-001
  2.961163E+002,  3.531563E+001,  0.000000E+000, -1.144674E+002, -1.252248E+001,  4.749849E+000,  5.002093E-001
  3.028214E+002,  3.234712E+001,  0.000000E+000, -1.118927E+002, -1.188409E+001,  8.679359E+000,  5.007663E-001
  3.097564E+002,  2.912397E+001,  0.000000E+000, -1.089813E+002, -1.121550E+001,  1.290275E+001,  5.008230E-001
  3.168758E+002,  2.493747E+001,  0.000000E+000, -1.056621E+002, -1.045392E+001,  1.747069E+001,  5.004711E-001
  3.230793E+002,  1.789174E+001,  0.000000E+000, -1.017148E+002, -9.725274E+000,  2.141592E+001,  5.009330E-001
  3.271579E+002,  1.252850E+001,  0.000000E+000, -9.798713E+001, -9.253279E+000,  2.335229E+001,  5.004807E-001
  3.284829E+002,  7.779406E+000,  0.000000E+000, -9.180565E+001, -8.170730E+000,  2.408931E+001,  5.008057E-001
  3.240384E+002, -3.854338E+000,  0.000000E+000, -7.504776E+001, -3.509191E+000,  2.317125E+001,  5.006427E-001
  3.172346E+002, -1.821857E+001,  0.000000E+000, -5.744445E+001,  8.765578E-001,  2.093515E+001,  5.006569E-001
  3.087945E+002, -3.303022E+001,  0.000000E+000, -3.953137E+001,  4.997085E+000,  1.848000E+001,  5.010333E-001
  2.994473E+002, -4.089507E+001,  0.000000E+000, -1.987005E+001,  9.871623E+000,  1.593012E+001,  5.002769E-001
  2.881201E+002, -4.403954E+001,  0.000000E+000,  9.287662E-001,  1.360388E+001,  1.247840E+001,  5.005904E-001
  2.739131E+002, -4.484978E+001,  0.000000E+000,  2.229576E+001,  1.500513E+001,  8.623591E+000,  5.002187E-001
  2.598849E+002, -4.488791E+001,  0.000000E+000,  4.197754E+001,  1.618247E+001,  4.753343E+000,  5.001996E-001
  2.492187E+002, -3.262471E+001,  0.000000E+000,  5.384187E+001,  1.453079E+001,  2.247504E+000,  5.006823E-001
  2.404199E+002, -1.850858E+001,  0.000000E+000,  6.283920E+001,  1.218033E+001,  3.833547E-001,  5.000762E-001
  2.322971E+002, -5.545771E+000,  0.000000E+000,  7.095167E+001,  1.010565E+001, -1.298599E+000,  5.006389E-001
  2.247030E+002,  6.353618E+000,  0.000000E+000,  7.823133E+001,  8.267818E+000, -2.826054E+000,  5.000766E-001
  2.175656E+002,  1.716864E+001,  0.000000E+000,  8.484301E+001,  6.603149E+000, -4.079500E+000,  5.006850E-001
  2.110121E+002,  2.697099E+001,  0.000000E+000,  9.084145E+001,  5.080670E+000, -5.276123E+000,  5.002240E-001
  2.930827E+002,  4.707109E+001,  0.000000E+000, -1.165403E+002, -1.306654E+001,  2.240516E+000,  5.000318E-001
  2.993491E+002,  4.341639E+001,  0.000000E+000, -1.139518E+002, -1.250712E+001,  5.863280E+000,  5.003267E-001
  3.060607E+002,  3.933144E+001,  0.000000E+000, -1.110625E+002, -1.188381E+001,  9.798240E+000,  5.001252E-001
  3.134320E+002,  3.500883E+001,  0.000000E+000, -1.078229E+002, -1.117052E+001,  1.433154E+001,  5.009301E-001
  3.212732E+002,  3.053745E+001,  0.000000E+000, -1.042058E+002, -1.030488E+001,  1.948468E+001,  5.007212E-001
  3.293038E+002,  2.684635E+001,  0.000000E+000, -9.994954E+001, -9.244177E+000,  2.469995E+001,  5.004476E-001
  3.348366E+002,  2.596225E+001,  0.000000E+000, -9.538667E+001, -8.376414E+000,  2.736433E+001,  5.010328E-001
  3.331026E+002,  2.299042E+001,  0.000000E+000, -8.257341E+001, -3.998380E+000,  2.729530E+001,  5.000904E-001
  3.254209E+002,  1.643267E+001,  0.000000E+000, -6.266484E+001,  1.498147E+000,  2.478535E+001,  5.008953E-001
  3.159915E+002,  1.068815E+001,  0.000000E+000, -4.223958E+001,  7.128600E+000,  2.199116E+001,  5.002476E-001
  3.048174E+002,  6.455849E+000,  0.000000E+000, -2.117176E+001,  1.125158E+001,  1.863573E+001,  5.007760E-001
  2.909250E+002,  3.916977E+000,  0.000000E+000,  4.921982E-001,  1.287602E+001,  1.473609E+001,  5.004115E-001
  2.766194E+002,  1.187285E+000,  0.000000E+000,  2.151044E+001,  1.429683E+001,  1.074325E+001,  5.005169E-001
  2.620997E+002, -1.742427E+000,  0.000000E+000,  4.111068E+001,  1.554309E+001,  6.868654E+000,  5.006299E-001
  2.478864E+002, -4.290631E+000,  0.000000E+000,  5.922648E+001,  1.667294E+001,  3.173577E+000,  5.007231E-001
  2.376211E+002,  5.288392E+000,  0.000000E+000,  7.008468E+001,  1.506431E+001,  8.056693E-001,  5.003635E-001
  2.295054E+002,  1.751526E+001,  0.000000E+000,  7.796056E+001,  1.272651E+001, -9.317496E-001,  5.002080E-001
  2.220028E+002,  2.857700E+001,  0.000000E+000,  8.500597E+001,  1.067336E+001, -2.478072E+000,  5.002721E-001
  2.149860E+002,  3.852609E+001,  0.000000E+000,  9.134095E+001,  8.893831E+000, -3.751636E+000,  5.004496E-001
  2.085697E+002,  4.746213E+001,  0.000000E+000,  9.705458E+001,  7.288180E+000, -4.935176E+000,  5.004754E-001
  2.911897E+002,  6.623875E+001,  0.000000E+000, -1.179703E+002, -1.505219E+001,  9.700783E-001,  5.002638E-001
  2.973060E+002,  6.432450E+001,  0.000000E+000, -1.154425E+002, -1.481579E+001,  4.676851E+000,  5.006736E-001
  3.040281E+002,  6.241952E+001,  0.000000E+000, -1.125719E+002, -1.464561E+001,  8.807917E+000,  5.005434E-001
  3.113213E+002,  6.057236E+001,  0.000000E+000, -1.093234E+002, -1.439127E+001,  1.361965E+001,  5.008258E-001
  3.191593E+002,  5.991280E+001,  0.000000E+000, -1.045306E+002, -1.247160E+001,  1.867016E+001,  5.010601E-001
  3.271179E+002,  6.121635E+001,  0.000000E+000, -9.797703E+001, -9.338958E+000,  2.359499E+001,  5.002217E-001
  3.339894E+002,  6.321932E+001,  0.000000E+000, -9.052472E+001, -5.132574E+000,  2.758336E+001,  5.002028E-001
  3.380160E+002,  6.670394E+001,  0.000000E+000, -8.234196E+001, -1.276012E+000,  2.978851E+001,  5.008984E-001
  3.314439E+002,  6.358927E+001,  0.000000E+000, -6.425483E+001,  3.947972E+000,  2.810030E+001,  5.007810E-001
  3.206314E+002,  5.903889E+001,  0.000000E+000, -4.320815E+001,  8.392674E+000,  2.471284E+001,  5.001389E-001
  3.069039E+002,  5.524690E+001,  0.000000E+000, -2.114558E+001,  1.037227E+001,  2.071627E+001,  5.002418E-001
  2.931131E+002,  5.157977E+001,  0.000000E+000,  9.999816E-002,  1.202998E+001,  1.677358E+001,  5.004293E-001
  2.787104E+002,  4.764420E+001,  0.000000E+000,  2.048436E+001,  1.344387E+001,  1.277899E+001,  5.006594E-001
  2.638621E+002,  4.371931E+001,  0.000000E+000,  3.961557E+001,  1.445054E+001,  8.914937E+000,  5.003942E-001
  2.498126E+002,  4.005079E+001,  0.000000E+000,  5.765050E+001,  1.539813E+001,  5.292595E+000,  5.003947E-001
  2.365040E+002,  3.672384E+001,  0.000000E+000,  7.450626E+001,  1.639749E+001,  1.826195E+000,  5.006913E-001
  2.266385E+002,  4.240090E+001,  0.000000E+000,  8.498506E+001,  1.530546E+001, -4.687930E-001,  5.004847E-001
  2.193563E+002,  5.217854E+001,  0.000000E+000,  9.181461E+001,  1.317180E+001, -2.078675E+000,  5.008566E-001
  2.124544E+002,  6.077890E+001,  0.000000E+000,  9.776978E+001,  1.133195E+001, -3.382444E+000,  5.007324E-001
  2.061047E+002,  6.847535E+001,  0.000000E+000,  1.030997E+002,  9.702355E+000, -4.630522E+000,  5.007392E-001
  2.904947E+002,  9.276400E+001,  0.000000E+000, -1.184423E+002, -1.946115E+001,  1.887988E+000,  5.000697E-001
  2.963565E+002,  9.289600E+001,  0.000000E+000, -1.157970E+002, -1.862716E+001,  5.430438E+000,  5.010589E-001
  3.026823E+002,  9.389390E+001,  0.000000E+000, -1.123409E+002, -1.699376E+001,  9.306463E+000,  5.003316E-001
  3.097593E+002,  9.616048E+001,  0.000000E+000, -1.074546E+002, -1.486901E+001,  1.379238E+001,  5.008310E-001
  3.171522E+002,  9.934132E+001,  0.000000E+000, -1.013263E+002, -1.184992E+001,  1.849569E+001,  5.001063E-001
  3.246837E+002,  1.028448E+002,  0.000000E+000, -9.442306E+001, -8.271263E+000,  2.328353E+001,  5.007120E-001
  3.320044E+002,  1.066759E+002,  0.000000E+000, -8.664560E+001, -4.319533E+000,  2.769112E+001,  5.000238E-001
  3.367275E+002,  1.102443E+002,  0.000000E+000, -7.792047E+001,  3.694419E-001,  3.011869E+001,  5.008767E-001
  3.351686E+002,  1.116888E+002,  0.000000E+000, -6.458890E+001,  5.285297E+000,  3.065688E+001,  5.005652E-001
  3.220095E+002,  1.073457E+002,  0.000000E+000, -4.262849E+001,  7.504333E+000,  2.667311E+001,  5.002126E-001
  3.082647E+002,  1.027702E+002,  0.000000E+000, -2.100748E+001,  9.245106E+000,  2.271232E+001,  5.006742E-001
  2.944747E+002,  9.802323E+001,  0.000000E+000, -3.156984E-001,  1.087217E+001,  1.873926E+001,  5.006179E-001
  2.800493E+002,  9.296897E+001,  0.000000E+000,  1.956987E+001,  1.227750E+001,  1.477738E+001,  5.002293E-001
  2.654669E+002,  8.781483E+001,  0.000000E+000,  3.833278E+001,  1.333562E+001,  1.093868E+001,  5.007981E-001
  2.516321E+002,  8.298410E+001,  0.000000E+000,  5.602933E+001,  1.429693E+001,  7.322285E+000,  5.002078E-001
  2.385077E+002,  7.839532E+001,  0.000000E+000,  7.269617E+001,  1.524765E+001,  3.873459E+000,  5.004420E-001
  2.260389E+002,  7.392984E+001,  0.000000E+000,  8.815971E+001,  1.635068E+001,  5.755312E-001,  5.007640E-001
  2.164878E+002,  7.596461E+001,  0.000000E+000,  9.825591E+001,  1.564883E+001, -1.695415E+000,  5.007330E-001
  2.097685E+002,  8.289001E+001,  0.000000E+000,  1.038695E+002,  1.375656E+001, -3.137750E+000,  5.005897E-001
  2.037532E+002,  8.598014E+001,  0.000000E+000,  1.077841E+002,  1.148740E+001, -4.456799E+000,  5.006819E-001
  2.895488E+002,  1.210928E+002,  0.000000E+000, -1.176418E+002, -2.207054E+001,  2.704906E+000,  5.006887E-001
  2.952175E+002,  1.236950E+002,  0.000000E+000, -1.143717E+002, -2.031085E+001,  6.235548E+000,  5.005817E-001
  3.016264E+002,  1.277269E+002,  0.000000E+000, -1.098435E+002, -1.806288E+001,  1.004760E+001,  5.001099E-001
  3.083971E+002,  1.327009E+002,  0.000000E+000, -1.043004E+002, -1.525035E+001,  1.431791E+001,  5.007069E-001
  3.155171E+002,  1.380623E+002,  0.000000E+000, -9.809647E+001, -1.208275E+001,  1.890393E+001,  5.003497E-001
  3.227397E+002,  1.437714E+002,  0.000000E+000, -9.114620E+001, -8.615415E+000,  2.355822E+001,  5.002477E-001
  3.299589E+002,  1.495686E+002,  0.000000E+000, -8.334942E+001, -4.899408E+000,  2.803928E+001,  5.006176E-001
  3.345171E+002,  1.548895E+002,  0.000000E+000, -7.446429E+001, -4.046622E-001,  3.067108E+001,  5.001282E-001
  3.350499E+002,  1.584429E+002,  0.000000E+000, -6.279847E+001,  4.497463E+000,  3.214078E+001,  5.001582E-001
  3.225465E+002,  1.538205E+002,  0.000000E+000, -4.176358E+001,  6.482747E+000,  2.849026E+001,  5.002432E-001
  3.092120E+002,  1.485330E+002,  0.000000E+000, -2.080540E+001,  8.222735E+000,  2.454485E+001,  5.003811E-001
  2.955125E+002,  1.427411E+002,  0.000000E+000, -6.370027E-001,  9.887783E+000,  2.056267E+001,  5.000912E-001
  2.812735E+002,  1.365206E+002,  0.000000E+000,  1.871104E+001,  1.126116E+001,  1.666364E+001,  5.006062E-001
  2.669167E+002,  1.301739E+002,  0.000000E+000,  3.711284E+001,  1.229467E+001,  1.284587E+001,  5.000815E-001
  2.533064E+002,  1.238607E+002,  0.000000E+000,  5.439010E+001,  1.333132E+001,  9.266239E+000,  5.007114E-001
  2.403226E+002,  1.176879E+002,  0.000000E+000,  7.059781E+001,  1.434744E+001,  5.827814E+000,  5.001855E-001
  2.280485E+002,  1.094994E+002,  0.000000E+000,  8.528322E+001,  1.502436E+001,  2.445922E+000,  5.001934E-001
  2.165752E+002,  9.913708E+001,  0.000000E+000,  9.825895E+001,  1.535648E+001, -1.001805E+000,  5.006537E-001
  2.079944E+002,  9.359392E+001,  0.000000E+000,  1.058504E+002,  1.377209E+001, -3.353673E+000,  5.005400E-001
  2.023764E+002,  9.319749E+001,  0.000000E+000,  1.088499E+002,  1.125154E+001, -4.700583E+000,  5.003445E-001
  2.883467E+002,  1.491825E+002,  0.000000E+000, -1.158143E+002, -2.313012E+001,  3.359146E+000,  5.001576E-001
  2.940633E+002,  1.542157E+002,  0.000000E+000, -1.116697E+002, -2.104921E+001,  6.904971E+000,  5.007849E-001
  3.004420E+002,  1.602473E+002,  0.000000E+000, -1.065461E+002, -1.854827E+001,  1.076548E+001,  5.004903E-001
  3.070438E+002,  1.668480E+002,  0.000000E+000, -1.009361E+002, -1.582918E+001,  1.496174E+001,  5.009590E-001
  3.139274E+002,  1.740190E+002,  0.000000E+000, -9.471952E+001, -1.275141E+001,  1.942336E+001,  5.004891E-001
  3.209157E+002,  1.816074E+002,  0.000000E+000, -8.776736E+001, -9.480428E+000,  2.398888E+001,  5.004283E-001
  3.279391E+002,  1.895978E+002,  0.000000E+000, -8.010839E+001, -5.924689E+000,  2.842756E+001,  5.004755E-001
  3.324924E+002,  1.969054E+002,  0.000000E+000, -7.120068E+001, -1.529350E+000,  3.132762E+001,  5.000092E-001
  3.335974E+002,  2.021855E+002,  0.000000E+000, -6.023504E+001,  3.307844E+000,  3.314335E+001,  5.001266E-001
  3.229417E+002,  1.981880E+002,  0.000000E+000, -4.093737E+001,  5.564307E+000,  3.020382E+001,  5.006618E-001
  3.099134E+002,  1.921164E+002,  0.000000E+000, -2.054004E+001,  7.312202E+000,  2.625895E+001,  5.001834E-001
  2.964930E+002,  1.854716E+002,  0.000000E+000, -9.750636E-001,  8.997579E+000,  2.231640E+001,  5.002616E-001
  2.823523E+002,  1.775808E+002,  0.000000E+000,  1.777115E+001,  1.032827E+001,  1.847803E+001,  5.000561E-001
  2.681580E+002,  1.667141E+002,  0.000000E+000,  3.511041E+001,  1.101235E+001,  1.454677E+001,  5.004632E-001
  2.548117E+002,  1.533895E+002,  0.000000E+000,  5.076624E+001,  1.117072E+001,  1.063393E+001,  5.005028E-001
  2.422931E+002,  1.403436E+002,  0.000000E+000,  6.525525E+001,  1.137408E+001,  6.903073E+000,  5.003651E-001
  2.304905E+002,  1.279621E+002,  0.000000E+000,  7.878925E+001,  1.161807E+001,  3.316093E+000,  5.003380E-001
  2.194618E+002,  1.160514E+002,  0.000000E+000,  9.134366E+001,  1.197993E+001, -3.867605E-002,  5.002198E-001
  2.091007E+002,  1.049681E+002,  0.000000E+000,  1.028997E+002,  1.244153E+001, -3.153107E+000,  5.000400E-001
  2.014617E+002,  9.937994E+001,  0.000000E+000,  1.091542E+002,  1.088367E+001, -4.972387E+000,  5.000246E-001
  2.871975E+002,  1.768633E+002,  0.000000E+000, -1.131303E+002, -2.348164E+001,  3.977118E+000,  5.003707E-001
  2.929190E+002,  1.834166E+002,  0.000000E+000, -1.084279E+002, -2.126027E+001,  7.493278E+000,  5.003881E-001
  2.990992E+002,  1.906096E+002,  0.000000E+000, -1.032378E+002, -1.882974E+001,  1.127876E+001,  5.007144E-001
  3.056062E+002,  1.983832E+002,  0.000000E+000, -9.752330E+001, -1.614393E+001,  1.547078E+001,  5.003694E-001
  3.123012E+002,  2.068219E+002,  0.000000E+000, -9.121461E+001, -1.331130E+001,  1.987817E+001,  5.005321E-001
  3.190747E+002,  2.158715E+002,  0.000000E+000, -8.432570E+001, -1.021306E+001,  2.438354E+001,  5.005847E-001
  3.258593E+002,  2.254253E+002,  0.000000E+000, -7.669017E+001, -6.935823E+000,  2.875543E+001,  5.001278E-001
  3.305271E+002,  2.344135E+002,  0.000000E+000, -6.771907E+001, -2.734313E+000,  3.197229E+001,  5.008791E-001
  3.318811E+002,  2.414589E+002,  0.000000E+000, -5.741029E+001,  2.030494E+000,  3.391995E+001,  5.007535E-001
  3.230293E+002,  2.391767E+002,  0.000000E+000, -3.997246E+001,  4.622294E+000,  3.170613E+001,  5.002146E-001
  3.101812E+002,  2.285406E+002,  0.000000E+000, -2.100491E+001,  5.977807E+000,  2.761714E+001,  5.001957E-001
  2.969493E+002,  2.142891E+002,  0.000000E+000, -3.194404E+000,  6.727985E+000,  2.334932E+001,  5.007952E-001
  2.831316E+002,  1.991081E+002,  0.000000E+000,  1.378455E+001,  7.044440E+000,  1.913949E+001,  5.006084E-001
  2.694452E+002,  1.840303E+002,  0.000000E+000,  2.993960E+001,  7.316771E+000,  1.509649E+001,  5.004221E-001
  2.565401E+002,  1.697095E+002,  0.000000E+000,  4.500989E+001,  7.671779E+000,  1.127153E+001,  5.002203E-001
  2.443915E+002,  1.559846E+002,  0.000000E+000,  5.903535E+001,  8.148264E+000,  7.601185E+000,  5.000073E-001
  2.329898E+002,  1.430761E+002,  0.000000E+000,  7.217660E+001,  8.617695E+000,  4.132662E+000,  5.005910E-001
  2.223121E+002,  1.308258E+002,  0.000000E+000,  8.442971E+001,  8.951078E+000,  8.330933E-001,  5.000067E-001
  2.121386E+002,  1.192416E+002,  0.000000E+000,  9.594727E+001,  9.260614E+000, -2.236062E+000,  5.004246E-001
  2.016386E+002,  1.088981E+002,  0.000000E+000,  1.066083E+002,  9.619000E+000, -4.379287E+000,  5.003841E-001
  2.860915E+002,  2.037418E+002,  0.000000E+000, -1.100886E+002, -2.366673E+001,  4.605164E+000,  5.003002E-001
  2.917567E+002,  2.112421E+002,  0.000000E+000, -1.052776E+002, -2.146444E+001,  8.024778E+000,  5.004702E-001
  2.977828E+002,  2.194175E+002,  0.000000E+000, -1.000178E+002, -1.906712E+001,  1.175944E+001,  5.008470E-001
  3.040581E+002,  2.282180E+002,  0.000000E+000, -9.425963E+001, -1.650786E+001,  1.582474E+001,  5.005657E-001
  3.106185E+002,  2.376738E+002,  0.000000E+000, -8.789725E+001, -1.385645E+001,  2.020850E+001,  5.005803E-001
  3.172482E+002,  2.477239E+002,  0.000000E+000, -8.102661E+001, -1.089597E+001,  2.469925E+001,  5.004154E-001
  3.236605E+002,  2.580995E+002,  0.000000E+000, -7.333671E+001, -7.795122E+000,  2.902681E+001,  5.002783E-001
  3.283269E+002,  2.665421E+002,  0.000000E+000, -6.461396E+001, -3.889538E+000,  3.249012E+001,  5.003344E-001
  3.290615E+002,  2.658007E+002,  0.000000E+000, -5.632440E+001, -4.171844E-002,  3.362628E+001,  5.009036E-001
  3.214752E+002,  2.555558E+002,  0.000000E+000, -4.128612E+001,  1.369988E+000,  3.152064E+001,  5.004324E-001
  3.094763E+002,  2.417310E+002,  0.000000E+000, -2.364923E+001,  2.106490E+000,  2.755926E+001,  5.004366E-001
  2.969490E+002,  2.276665E+002,  0.000000E+000, -6.871258E+000,  2.965979E+000,  2.348096E+001,  5.003007E-001
  2.838179E+002,  2.129181E+002,  0.000000E+000,  9.220455E+000,  3.527181E+000,  1.947288E+001,  5.000695E-001
  2.707188E+002,  1.977315E+002,  0.000000E+000,  2.473341E+001,  4.130366E+000,  1.567959E+001,  5.002993E-001
  2.582079E+002,  1.831009E+002,  0.000000E+000,  3.933352E+001,  4.710941E+000,  1.190688E+001,  5.006323E-001
  2.464509E+002,  1.691688E+002,  0.000000E+000,  5.298084E+001,  5.131195E+000,  8.259431E+000,  5.000416E-001
  2.354311E+002,  1.560516E+002,  0.000000E+000,  6.577092E+001,  5.535833E+000,  4.825923E+000,  5.003790E-001
  2.249523E+002,  1.437677E+002,  0.000000E+000,  7.781384E+001,  5.897536E+000,  1.561650E+000,  5.003667E-001
  2.140122E+002,  1.324225E+002,  0.000000E+000,  8.934414E+001,  6.291616E+000, -7.710936E-001,  5.001975E-001
  2.030866E+002,  1.218217E+002,  0.000000E+000,  1.002523E+002,  6.658961E+000, -2.506251E+000,  5.001063E-001
  2.850016E+002,  2.292379E+002,  0.000000E+000, -1.070986E+002, -2.380151E+001,  5.188223E+000,  5.000852E-001
  2.905018E+002,  2.375656E+002,  0.000000E+000, -1.022273E+002, -2.162026E+001,  8.521690E+000,  5.001526E-001
  2.963864E+002,  2.465530E+002,  0.000000E+000, -9.692535E+001, -1.927631E+001,  1.212272E+001,  5.001586E-001
  3.025262E+002,  2.561028E+002,  0.000000E+000, -9.111115E+001, -1.691093E+001,  1.608269E+001,  5.008431E-001
  3.088248E+002,  2.662396E+002,  0.000000E+000, -8.481077E+001, -1.434068E+001,  2.039258E+001,  5.006261E-001
  3.152887E+002,  2.768394E+002,  0.000000E+000, -7.801544E+001, -1.154869E+001,  2.486068E+001,  5.003291E-001
  3.202560E+002,  2.801345E+002,  0.000000E+000, -7.181169E+001, -9.001250E+000,  2.780421E+001,  5.009885E-001
  3.240573E+002,  2.792816E+002,  0.000000E+000, -6.523087E+001, -6.210816E+000,  2.994475E+001,  5.004584E-001
  3.254202E+002,  2.758774E+002,  0.000000E+000, -5.757234E+001, -3.314501E+000,  3.158337E+001,  5.005357E-001
  3.188787E+002,  2.652925E+002,  0.000000E+000, -4.338373E+001, -1.940742E+000,  3.004346E+001,  5.000857E-001
  3.081551E+002,  2.512712E+002,  0.000000E+000, -2.638978E+001, -1.242277E+000,  2.688031E+001,  5.000933E-001
  2.965971E+002,  2.368800E+002,  0.000000E+000, -1.018579E+001, -2.669906E-001,  2.346130E+001,  5.001287E-001
  2.843149E+002,  2.224968E+002,  0.000000E+000,  5.122653E+000,  5.417329E-001,  1.972248E+001,  5.005282E-001
  2.716917E+002,  2.081599E+002,  0.000000E+000,  1.994788E+001,  1.118278E+000,  1.588227E+001,  5.005768E-001
  2.597039E+002,  1.941503E+002,  0.000000E+000,  3.400217E+001,  1.631934E+000,  1.220600E+001,  5.001616E-001
  2.483733E+002,  1.807087E+002,  0.000000E+000,  4.725349E+001,  2.091087E+000,  8.699385E+000,  5.001485E-001
  2.375076E+002,  1.678224E+002,  0.000000E+000,  5.980105E+001,  2.515163E+000,  5.324469E+000,  5.001688E-001
  2.263224E+002,  1.558456E+002,  0.000000E+000,  7.182673E+001,  2.941034E+000,  2.840617E+000,  5.004711E-001
  2.149435E+002,  1.446407E+002,  0.000000E+000,  8.326178E+001,  3.402964E+000,  1.090040E+000,  5.003212E-001
  2.029709E+002,  1.342997E+002,  0.000000E+000,  9.418961E+001,  3.980599E+000,  2.789608E-001,  5.000949E-001
  2.838818E+002,  2.535336E+002,  0.000000E+000, -1.042120E+002, -2.392107E+001,  5.810601E+000,  5.004109E-001
  2.892084E+002,  2.623878E+002,  0.000000E+000, -9.932761E+001, -2.178809E+001,  9.073378E+000,  5.002826E-001
  2.948830E+002,  2.719170E+002,  0.000000E+000, -9.399824E+001, -1.957186E+001,  1.256231E+001,  5.001600E-001
  3.008418E+002,  2.820756E+002,  0.000000E+000, -8.819611E+001, -1.728151E+001,  1.636692E+001,  5.003315E-001
  3.063592E+002,  2.888111E+002,  0.000000E+000, -8.277612E+001, -1.494987E+001,  1.984865E+001,  5.005996E-001
  3.112934E+002,  2.897230E+002,  0.000000E+000, -7.819863E+001, -1.306108E+001,  2.218874E+001,  5.006604E-001
  3.156521E+002,  2.892887E+002,  0.000000E+000, -7.271219E+001, -1.093697E+001,  2.439011E+001,  5.004430E-001
  3.192370E+002,  2.876941E+002,  0.000000E+000, -6.654899E+001, -8.250935E+000,  2.662818E+001,  5.003688E-001
  3.204514E+002,  2.837678E+002,  0.000000E+000, -5.911629E+001, -5.546601E+000,  2.826679E+001,  5.005654E-001
  3.152705E+002,  2.731418E+002,  0.000000E+000, -4.575420E+001, -4.181122E+000,  2.764434E+001,  5.003257E-001
  3.060876E+002,  2.588637E+002,  0.000000E+000, -2.928988E+001, -3.779918E+000,  2.542546E+001,  5.002645E-001
  2.955807E+002,  2.445969E+002,  0.000000E+000, -1.361318E+001, -3.141257E+000,  2.248195E+001,  5.007682E-001
  2.844000E+002,  2.303777E+002,  0.000000E+000,  1.317389E+000, -2.596233E+000,  1.932897E+001,  5.007749E-001
  2.724389E+002,  2.162876E+002,  0.000000E+000,  1.570352E+001, -1.998766E+000,  1.581459E+001,  5.004166E-001
  2.608565E+002,  2.029496E+002,  0.000000E+000,  2.928970E+001, -1.398742E+000,  1.224008E+001,  5.002263E-001
  2.497268E+002,  1.903804E+002,  0.000000E+000,  4.210636E+001, -8.676891E-001,  8.837965E+000,  5.000237E-001
  2.382662E+002,  1.782839E+002,  0.000000E+000,  5.451545E+001, -3.826562E-001,  6.353972E+000,  5.005132E-001
  2.265438E+002,  1.668695E+002,  0.000000E+000,  6.641585E+001,  1.685435E-001,  4.611119E+000,  5.005518E-001
  2.141738E+002,  1.560267E+002,  0.000000E+000,  7.783623E+001,  8.435051E-001,  3.702319E+000,  5.001885E-001
  2.021090E+002,  1.458342E+002,  0.000000E+000,  8.863819E+001,  1.513474E+000,  3.015941E+000,  5.007943E-001
  2.827059E+002,  2.763444E+002,  0.000000E+000, -1.014585E+002, -2.402972E+001,  6.483872E+000,  5.002032E-001
  2.878670E+002,  2.858035E+002,  0.000000E+000, -9.657585E+001, -2.198376E+001,  9.684374E+000,  5.006803E-001
  2.931161E+002,  2.947266E+002,  0.000000E+000, -9.144444E+001, -1.993202E+001,  1.288820E+001,  5.008517E-001
  2.977193E+002,  2.971086E+002,  0.000000E+000, -8.736278E+001, -1.809203E+001,  1.507376E+001,  5.007599E-001
  3.023463E+002,  2.975549E+002,  0.000000E+000, -8.345696E+001, -1.635068E+001,  1.697564E+001,  5.005732E-001
  3.068612E+002,  2.974526E+002,  0.000000E+000, -7.908218E+001, -1.462602E+001,  1.890569E+001,  5.001212E-001
  3.109586E+002,  2.965953E+002,  0.000000E+000, -7.380106E+001, -1.243666E+001,  2.097821E+001,  5.009340E-001
  3.142263E+002,  2.944866E+002,  0.000000E+000, -6.800757E+001, -9.676946E+000,  2.314937E+001,  5.003706E-001
  3.155756E+002,  2.898342E+002,  0.000000E+000, -6.081971E+001, -7.040713E+000,  2.491133E+001,  5.005170E-001
  3.108761E+002,  2.793116E+002,  0.000000E+000, -4.809838E+001, -5.995938E+000,  2.439999E+001,  5.001848E-001
  3.024405E+002,  2.654495E+002,  0.000000E+000, -3.227910E+001, -5.862547E+000,  2.246919E+001,  5.005194E-001
  2.933243E+002,  2.514967E+002,  0.000000E+000, -1.694938E+001, -5.579906E+000,  2.032362E+001,  5.001598E-001
  2.834398E+002,  2.376464E+002,  0.000000E+000, -2.409321E+000, -5.224988E+000,  1.790380E+001,  5.000191E-001
  2.724218E+002,  2.238209E+002,  0.000000E+000,  1.166950E+001, -4.799015E+000,  1.498689E+001,  5.000745E-001
  2.614789E+002,  2.106637E+002,  0.000000E+000,  2.501062E+001, -4.381056E+000,  1.210890E+001,  5.005652E-001
  2.497259E+002,  1.984820E+002,  0.000000E+000,  3.779573E+001, -3.764848E+000,  9.690827E+000,  5.000519E-001
  2.375109E+002,  1.872610E+002,  0.000000E+000,  5.004038E+001, -3.030225E+000,  7.961667E+000,  5.001673E-001
  2.249291E+002,  1.767712E+002,  0.000000E+000,  6.175754E+001, -2.225702E+000,  6.863834E+000,  5.000221E-001
  2.126040E+002,  1.663741E+002,  0.000000E+000,  7.294432E+001, -1.493632E+000,  6.121473E+000,  5.000880E-001
  2.009574E+002,  1.565223E+002,  0.000000E+000,  8.347214E+001, -7.690309E-001,  5.419450E+000,  5.005991E-001
  2.814472E+002,  2.979409E+002,  0.000000E+000, -9.883861E+001, -2.414147E+001,  7.071057E+000,  5.000431E-001
  2.856294E+002,  3.027461E+002,  0.000000E+000, -9.491362E+001, -2.242839E+001,  9.332273E+000,  5.009964E-001
  2.896424E+002,  3.038430E+002,  0.000000E+000, -9.148166E+001, -2.092407E+001,  1.097094E+001,  5.009896E-001
  2.938211E+002,  3.042757E+002,  0.000000E+000, -8.799154E+001, -1.934444E+001,  1.257000E+001,  5.001756E-001
  2.982366E+002,  3.043464E+002,  0.000000E+000, -8.437357E+001, -1.767688E+001,  1.425875E+001,  5.006744E-001
  3.023493E+002,  3.038292E+002,  0.000000E+000, -7.995101E+001, -1.581878E+001,  1.595553E+001,  5.008120E-001
  3.061997E+002,  3.024578E+002,  0.000000E+000, -7.492282E+001, -1.340140E+001,  1.780775E+001,  5.004893E-001
  3.092689E+002,  2.996702E+002,  0.000000E+000, -6.960424E+001, -1.076317E+001,  1.972274E+001,  5.006727E-001
  3.104215E+002,  2.948852E+002,  0.000000E+000, -6.251491E+001, -8.542716E+000,  2.114661E+001,  5.006712E-001
  3.060835E+002,  2.847407E+002,  0.000000E+000, -5.021573E+001, -7.682032E+000,  2.069554E+001,  5.001906E-001
  2.981541E+002,  2.713660E+002,  0.000000E+000, -3.494535E+001, -7.596593E+000,  1.899046E+001,  5.004321E-001
  2.896283E+002,  2.579483E+002,  0.000000E+000, -2.021000E+001, -7.341435E+000,  1.707502E+001,  5.003535E-001
  2.808637E+002,  2.446385E+002,  0.000000E+000, -6.211901E+000, -7.186007E+000,  1.505246E+001,  5.005389E-001
  2.705720E+002,  2.311462E+002,  0.000000E+000,  7.757028E+000, -6.997789E+000,  1.327515E+001,  5.001796E-001
  2.594305E+002,  2.184706E+002,  0.000000E+000,  2.111857E+001, -6.653033E+000,  1.181972E+001,  5.004189E-001
  2.471512E+002,  2.065980E+002,  0.000000E+000,  3.401666E+001, -6.012202E+000,  1.075008E+001,  5.005267E-001
  2.346792E+002,  1.955386E+002,  0.000000E+000,  4.622658E+001, -5.256454E+000,  9.946464E+000,  5.004890E-001
  2.224659E+002,  1.852170E+002,  0.000000E+000,  5.769411E+001, -4.436757E+000,  9.142183E+000,  5.003790E-001
  2.108270E+002,  1.755278E+002,  0.000000E+000,  6.846186E+001, -3.601791E+000,  8.285928E+000,  5.003190E-001
  1.997460E+002,  1.660024E+002,  0.000000E+000,  7.869310E+001, -2.857030E+000,  7.518178E+000,  5.004155E-001
