 S11, S22, S33, S12, S23, S31, wp
 -2.057639E+001, -1.226933E+002,  0.000000E+000, -7.812816E+001,  6.479251E+000, -7.495075E+000,  3.201205E-001
 -2.117362E+001, -1.290119E+002,  0.000000E+000, -7.289647E+001,  4.987641E+000, -6.772537E+000,  3.200310E-001
 -2.418407E+001, -1.378102E+002,  0.000000E+000, -6.518517E+001,  4.188550E+000, -6.404116E+000,  3.203231E-001
 -3.026177E+001, -1.491116E+002,  0.000000E+000, -5.458659E+001,  4.768079E+000, -6.666946E+000,  3.201753E-001
 -3.683591E+001, -1.613301E+002,  0.000000E+000, -4.308398E+001,  5.419197E+000, -6.967954E+000,  3.201085E-001
 -4.383901E+001, -1.744990E+002,  0.000000E+000, -3.061662E+001,  6.110441E+000, -7.284875E+000,  3.204046E-001
 -5.151132E+001, -1.884655E+002,  0.000000E+000, -1.711268E+001,  6.754528E+000, -7.518613E+000,  3.201778E-001
 -5.959147E+001, -2.034655E+002,  0.000000E+000, -2.473758E+000,  7.561189E+000, -7.811551E+000,  3.200882E-001
 -6.817804E+001, -2.192646E+002,  0.000000E+000,  1.314116E+001,  8.414317E+000, -8.198211E+000,  3.202098E-001
 -7.780230E+001, -2.322288E+002,  0.000000E+000,  2.750358E+001,  9.108715E+000, -9.456451E+000,  3.204045E-001
 -8.934746E+001, -2.342826E+002,  0.000000E+000,  3.452155E+001,  8.593351E+000, -1.140712E+001,  3.203051E-001
 -1.003700E+002, -2.340262E+002,  0.000000E+000,  4.055367E+001,  7.675208E+000, -1.322691E+001,  3.200765E-001
 -1.090963E+002, -2.328566E+002,  0.000000E+000,  4.560465E+001,  7.720021E+000, -1.387082E+001,  3.204006E-001
 -1.160380E+002, -2.307167E+002,  0.000000E+000,  5.028927E+001,  8.292803E+000, -1.388529E+001,  3.202763E-001
 -1.217500E+002, -2.284188E+002,  0.000000E+000,  5.432156E+001,  9.253958E+000, -1.350832E+001,  3.205621E-001
 -1.264317E+002, -2.261716E+002,  0.000000E+000,  5.781596E+001,  1.045097E+001, -1.285324E+001,  3.202667E-001
 -1.306701E+002, -2.240544E+002,  0.000000E+000,  6.100807E+001,  1.158647E+001, -1.217699E+001,  3.206718E-001
 -1.345780E+002, -2.221468E+002,  0.000000E+000,  6.372344E+001,  1.244602E+001, -1.154925E+001,  3.203582E-001
 -1.378732E+002, -2.201670E+002,  0.000000E+000,  6.606074E+001,  1.298449E+001, -1.099407E+001,  3.200807E-001
 -1.403838E+002, -2.175002E+002,  0.000000E+000,  6.802576E+001,  1.363245E+001, -1.035063E+001,  3.203403E-001
 -1.835894E+000, -1.282245E+002,  0.000000E+000, -7.834678E+001,  8.182167E+000, -8.093736E+000,  3.203948E-001
  2.765300E-001, -1.334799E+002,  0.000000E+000, -7.432310E+001,  6.326225E+000, -7.305312E+000,  3.202140E-001
 -4.500301E-002, -1.414083E+002,  0.000000E+000, -6.781787E+001,  4.865704E+000, -6.698556E+000,  3.204319E-001
 -3.547742E+000, -1.521702E+002,  0.000000E+000, -5.828816E+001,  4.558449E+000, -6.591144E+000,  3.201718E-001
 -9.175265E+000, -1.649049E+002,  0.000000E+000, -4.656075E+001,  5.213593E+000, -6.927592E+000,  3.203213E-001
 -1.518467E+001, -1.786412E+002,  0.000000E+000, -3.374831E+001,  6.003958E+000, -7.282121E+000,  3.204174E-001
 -2.155617E+001, -1.931746E+002,  0.000000E+000, -1.992046E+001,  6.817991E+000, -7.623288E+000,  3.203108E-001
 -2.865203E+001, -2.088631E+002,  0.000000E+000, -4.836923E+000,  7.632509E+000, -7.972631E+000,  3.201297E-001
 -3.778851E+001, -2.236832E+002,  0.000000E+000,  1.035377E+001,  8.778282E+000, -9.281924E+000,  3.203252E-001
 -5.009002E+001, -2.322595E+002,  0.000000E+000,  2.202237E+001,  9.751227E+000, -1.158281E+001,  3.200622E-001
 -6.140895E+001, -2.340937E+002,  0.000000E+000,  2.856750E+001,  8.782841E+000, -1.304379E+001,  3.206134E-001
 -7.255631E+001, -2.338955E+002,  0.000000E+000,  3.429246E+001,  7.480241E+000, -1.394876E+001,  3.205977E-001
 -8.360965E+001, -2.331389E+002,  0.000000E+000,  4.017756E+001,  6.374080E+000, -1.517204E+001,  3.202227E-001
 -9.312952E+001, -2.315513E+002,  0.000000E+000,  4.581010E+001,  5.797677E+000, -1.605657E+001,  3.200074E-001
 -1.005088E+002, -2.293338E+002,  0.000000E+000,  5.046254E+001,  6.388283E+000, -1.599568E+001,  3.203915E-001
 -1.067354E+002, -2.270457E+002,  0.000000E+000,  5.451189E+001,  7.252812E+000, -1.557728E+001,  3.205044E-001
 -1.120632E+002, -2.249238E+002,  0.000000E+000,  5.790380E+001,  8.312465E+000, -1.497584E+001,  3.206405E-001
 -1.169088E+002, -2.229988E+002,  0.000000E+000,  6.080782E+001,  9.241897E+000, -1.439328E+001,  3.200400E-001
 -1.209725E+002, -2.206407E+002,  0.000000E+000,  6.337926E+001,  1.008462E+001, -1.377697E+001,  3.203656E-001
 -1.241329E+002, -2.175986E+002,  0.000000E+000,  6.543387E+001,  1.080298E+001, -1.308285E+001,  3.203551E-001
 -8.226009E+000, -1.225529E+002,  0.000000E+000, -8.101170E+001,  9.432337E+000, -8.820128E+000,  3.200909E-001
 -1.286329E+002, -2.124651E+002,  0.000000E+000,  6.808682E+001,  1.210393E+001, -1.171434E+001,  3.203155E-001
 -1.514034E+001, -1.160623E+002,  0.000000E+000, -8.378751E+001,  1.060050E+001, -9.658135E+000,  3.201651E-001
 -1.256225E+002, -1.962912E+002,  0.000000E+000,  7.177620E+001,  1.333799E+001, -9.987310E+000,  3.202514E-001
 -2.260004E+001, -1.084296E+002,  0.000000E+000, -8.661418E+001,  1.161710E+001, -1.064123E+001,  3.202237E-001
 -1.193787E+002, -1.755100E+002,  0.000000E+000,  7.572969E+001,  1.473178E+001, -7.972768E+000,  3.202051E-001
  1.664136E+001, -1.341279E+002,  0.000000E+000, -7.790363E+001,  9.778634E+000, -8.744326E+000,  3.202169E-001
  2.096941E+001, -1.389343E+002,  0.000000E+000, -7.470312E+001,  8.049049E+000, -8.030583E+000,  3.204129E-001
  2.370153E+001, -1.459303E+002,  0.000000E+000, -6.940911E+001,  6.153146E+000, -7.336457E+000,  3.204699E-001
  2.382927E+001, -1.556153E+002,  0.000000E+000, -6.155686E+001,  4.727585E+000, -6.798997E+000,  3.200621E-001
  2.015827E+001, -1.684926E+002,  0.000000E+000, -5.007679E+001,  5.094583E+000, -7.000373E+000,  3.200697E-001
  1.517466E+001, -1.827953E+002,  0.000000E+000, -3.695687E+001,  5.922072E+000, -7.363601E+000,  3.200623E-001
  7.955700E+000, -1.971007E+002,  0.000000E+000, -2.323383E+001,  7.204076E+000, -8.473065E+000,  3.203039E-001
 -1.969770E+000, -2.113708E+002,  0.000000E+000, -8.856564E+000,  8.931911E+000, -1.036625E+001,  3.202182E-001
 -1.381566E+001, -2.238236E+002,  0.000000E+000,  5.157568E+000,  1.060018E+001, -1.291259E+001,  3.205609E-001
 -2.625282E+001, -2.310995E+002,  0.000000E+000,  1.618198E+001,  1.123139E+001, -1.435592E+001,  3.204269E-001
 -3.757499E+001, -2.337586E+002,  0.000000E+000,  2.343965E+001,  1.044045E+001, -1.520778E+001,  3.205936E-001
 -4.773979E+001, -2.337790E+002,  0.000000E+000,  2.870182E+001,  8.554515E+000, -1.562137E+001,  3.205036E-001
 -5.822896E+001, -2.327697E+002,  0.000000E+000,  3.446123E+001,  6.872534E+000, -1.622611E+001,  3.203243E-001
 -6.844174E+001, -2.313033E+002,  0.000000E+000,  4.040701E+001,  5.525536E+000, -1.697203E+001,  3.201913E-001
 -7.802820E+001, -2.297010E+002,  0.000000E+000,  4.595871E+001,  4.418815E+000, -1.780991E+001,  3.203948E-001
 -8.579714E+001, -2.276240E+002,  0.000000E+000,  5.052548E+001,  4.395460E+000, -1.776765E+001,  3.200060E-001
 -9.268024E+001, -2.256137E+002,  0.000000E+000,  5.435263E+001,  4.992500E+000, -1.745686E+001,  3.202462E-001
 -9.853471E+001, -2.235008E+002,  0.000000E+000,  5.765849E+001,  5.736150E+000, -1.698835E+001,  3.204399E-001
 -1.033412E+002, -2.206966E+002,  0.000000E+000,  6.026841E+001,  6.824816E+000, -1.627253E+001,  3.200477E-001
 -1.070230E+002, -2.169511E+002,  0.000000E+000,  6.265392E+001,  7.820473E+000, -1.545461E+001,  3.200385E-001
  1.131664E+001, -1.285182E+002,  0.000000E+000, -8.069131E+001,  1.115829E+001, -9.516744E+000,  3.203345E-001
 -1.070036E+002, -2.060604E+002,  0.000000E+000,  6.586524E+001,  8.958634E+000, -1.426785E+001,  3.203676E-001
  5.368407E+000, -1.220345E+002,  0.000000E+000, -8.348643E+001,  1.238643E+001, -1.037411E+001,  3.202758E-001
 -1.014156E+002, -1.861650E+002,  0.000000E+000,  7.010043E+001,  1.016225E+001, -1.278221E+001,  3.203680E-001
 -1.162020E+000, -1.145996E+002,  0.000000E+000, -8.634312E+001,  1.352799E+001, -1.134372E+001,  3.204006E-001
 -9.483407E+001, -1.650464E+002,  0.000000E+000,  7.425014E+001,  1.142884E+001, -1.108886E+001,  3.203528E-001
 -8.802530E+000, -1.068454E+002,  0.000000E+000, -8.878343E+001,  1.382755E+001, -1.251671E+001,  3.200465E-001
 -8.727972E+001, -1.423443E+002,  0.000000E+000,  7.833016E+001,  1.266005E+001, -9.051012E+000,  3.202678E-001
 -1.757168E+001, -9.923859E+001,  0.000000E+000, -9.047412E+001,  1.265840E+001, -1.407049E+001,  3.200466E-001
 -7.878746E+001, -1.180022E+002,  0.000000E+000,  8.240694E+001,  1.383072E+001, -6.745354E+000,  3.202422E-001
 -2.696439E+001, -9.104625E+001,  0.000000E+000, -9.209819E+001,  1.136769E+001, -1.575604E+001,  3.203901E-001
 -6.940981E+001, -9.292895E+001,  0.000000E+000,  8.602651E+001,  1.424879E+001, -3.942383E+000,  3.201418E-001
 -2.908318E+001, -7.564686E+001,  0.000000E+000, -9.276061E+001,  8.750648E+000, -1.533519E+001,  3.202925E-001
 -5.810127E+001, -6.705264E+001,  0.000000E+000,  8.871165E+001,  1.282133E+001, -3.879442E-001,  3.203246E-001
  3.293840E+001, -1.390206E+002,  0.000000E+000, -7.661470E+001,  1.044616E+001, -8.849963E+000,  3.201628E-001
  3.808337E+001, -1.441708E+002,  0.000000E+000, -7.349814E+001,  8.728989E+000, -8.372052E+000,  3.200099E-001
  4.300706E+001, -1.503690E+002,  0.000000E+000, -6.901694E+001,  6.840572E+000, -7.777115E+000,  3.200343E-001
  4.590572E+001, -1.590813E+002,  0.000000E+000, -6.235286E+001,  5.244260E+000, -7.198490E+000,  3.204401E-001
  4.379532E+001, -1.698869E+002,  0.000000E+000, -5.309017E+001,  4.934712E+000, -7.707013E+000,  3.201726E-001
  3.564962E+001, -1.828486E+002,  0.000000E+000, -4.082512E+001,  6.908613E+000, -9.821279E+000,  3.203598E-001
  2.654140E+001, -1.963941E+002,  0.000000E+000, -2.765917E+001,  8.946242E+000, -1.205100E+001,  3.205300E-001
  1.651029E+001, -2.103472E+002,  0.000000E+000, -1.371351E+001,  1.089056E+001, -1.437664E+001,  3.202275E-001
  5.538967E+000, -2.217061E+002,  0.000000E+000, -7.606490E-001,  1.257374E+001, -1.612196E+001,  3.202788E-001
 -7.621464E+000, -2.282359E+002,  0.000000E+000,  9.950009E+000,  1.316518E+001, -1.563991E+001,  3.204800E-001
 -2.015496E+001, -2.312776E+002,  0.000000E+000,  1.845667E+001,  1.243512E+001, -1.453571E+001,  3.201883E-001
 -2.823731E+001, -2.320216E+002,  0.000000E+000,  2.397138E+001,  1.019224E+001, -1.491313E+001,  3.206105E-001
 -3.602492E+001, -2.314387E+002,  0.000000E+000,  2.928889E+001,  7.919457E+000, -1.613606E+001,  3.202906E-001
 -4.485780E+001, -2.304503E+002,  0.000000E+000,  3.495346E+001,  6.207731E+000, -1.745075E+001,  3.201505E-001
 -5.411019E+001, -2.289279E+002,  0.000000E+000,  4.048301E+001,  4.534688E+000, -1.825803E+001,  3.201955E-001
 -6.348992E+001, -2.273969E+002,  0.000000E+000,  4.559529E+001,  2.992731E+000, -1.890305E+001,  3.202585E-001
 -7.228706E+001, -2.257915E+002,  0.000000E+000,  5.017572E+001,  2.079038E+000, -1.934332E+001,  3.200942E-001
 -7.953911E+001, -2.234330E+002,  0.000000E+000,  5.384301E+001,  2.512686E+000, -1.911529E+001,  3.202535E-001
 -8.528218E+001, -2.200689E+002,  0.000000E+000,  5.685552E+001,  3.393516E+000, -1.864349E+001,  3.201583E-001
 -8.822583E+001, -2.134625E+002,  0.000000E+000,  5.974974E+001,  4.551558E+000, -1.770568E+001,  3.203142E-001
  2.853319E+001, -1.336419E+002,  0.000000E+000, -7.955283E+001,  1.206313E+001, -9.425922E+000,  3.204380E-001
 -8.336831E+001, -1.960106E+002,  0.000000E+000,  6.371063E+001,  5.598909E+000, -1.650747E+001,  3.203919E-001
  2.361300E+001, -1.272515E+002,  0.000000E+000, -8.244955E+001,  1.336964E+001, -1.016254E+001,  3.205633E-001
 -7.715579E+001, -1.759470E+002,  0.000000E+000,  6.801005E+001,  6.640672E+000, -1.517526E+001,  3.203277E-001
  1.811706E+001, -1.203277E+002,  0.000000E+000, -8.518400E+001,  1.447504E+001, -1.124940E+001,  3.204094E-001
 -7.022046E+001, -1.544436E+002,  0.000000E+000,  7.240277E+001,  7.888858E+000, -1.371052E+001,  3.204927E-001
  1.223062E+001, -1.131195E+002,  0.000000E+000, -8.772674E+001,  1.506877E+001, -1.286587E+001,  3.204291E-001
 -6.214006E+001, -1.315871E+002,  0.000000E+000,  7.661758E+001,  9.232128E+000, -1.194498E+001,  3.204591E-001
  5.622212E+000, -1.057680E+002,  0.000000E+000, -8.971396E+001,  1.452118E+001, -1.492295E+001,  3.203418E-001
 -5.292992E+001, -1.067428E+002,  0.000000E+000,  8.082885E+001,  1.049881E+001, -9.984551E+000,  3.203340E-001
  6.042399E-002, -9.378703E+001,  0.000000E+000, -9.129136E+001,  1.222042E+001, -1.626529E+001,  3.202575E-001
 -4.181310E+001, -8.006520E+001,  0.000000E+000,  8.464068E+001,  1.129535E+001, -7.568511E+000,  3.203824E-001
  5.385953E+000, -6.536038E+001,  0.000000E+000, -9.244449E+001,  6.945527E+000, -1.650708E+001,  3.202579E-001
 -2.950958E+001, -5.340017E+001,  0.000000E+000,  8.749949E+001,  1.017658E+001, -4.176494E+000,  3.203466E-001
  1.370676E+001, -3.602503E+001,  0.000000E+000, -9.273409E+001,  2.135550E+000, -1.518982E+001,  3.204065E-001
 -1.700660E+001, -2.892661E+001,  0.000000E+000,  8.918263E+001,  6.980091E+000,  9.252153E-002,  3.201111E-001
  2.358347E+001, -8.465206E+000,  0.000000E+000, -9.227250E+001, -1.944230E+000, -1.224638E+001,  3.202726E-001
 -4.861293E+000, -4.042955E+000,  0.000000E+000,  9.045863E+001,  3.156501E+000,  4.397066E+000,  3.205234E-001
  3.494911E+001,  1.732065E+001,  0.000000E+000, -9.128161E+001, -5.730908E+000, -8.211697E+000,  3.202886E-001
  7.062786E+000,  2.172467E+001,  0.000000E+000,  9.148227E+001, -6.350052E-001,  8.634166E+000,  3.204354E-001
  4.644000E+001,  4.252939E+001,  0.000000E+000, -9.017798E+001, -9.437773E+000, -3.914628E+000,  3.201832E-001
  1.877477E+001,  4.790425E+001,  0.000000E+000,  9.233741E+001, -4.477589E+000,  1.249926E+001,  3.204626E-001
  4.538228E+001, -1.427104E+002,  0.000000E+000, -7.418798E+001,  9.615325E+000, -8.233809E+000,  3.204780E-001
  5.118905E+001, -1.481758E+002,  0.000000E+000, -7.117009E+001,  8.149993E+000, -7.766891E+000,  3.203253E-001
  5.677523E+001, -1.539838E+002,  0.000000E+000, -6.734706E+001,  6.645456E+000, -7.373472E+000,  3.200223E-001
  5.858318E+001, -1.598610E+002,  0.000000E+000, -6.278170E+001,  5.496784E+000, -8.121474E+000,  3.204348E-001
  5.502482E+001, -1.681267E+002,  0.000000E+000, -5.564881E+001,  5.424825E+000, -9.924312E+000,  3.204643E-001
  4.778296E+001, -1.803942E+002,  0.000000E+000, -4.428346E+001,  7.287257E+000, -1.211447E+001,  3.200738E-001
  3.963261E+001, -1.939109E+002,  0.000000E+000, -3.160497E+001,  9.599775E+000, -1.451802E+001,  3.202288E-001
  3.049109E+001, -2.079408E+002,  0.000000E+000, -1.832592E+001,  1.217855E+001, -1.711235E+001,  3.202039E-001
  1.995524E+001, -2.189255E+002,  0.000000E+000, -6.348155E+000,  1.440177E+001, -1.856464E+001,  3.204835E-001
  7.224701E+000, -2.243439E+002,  0.000000E+000,  3.397075E+000,  1.469232E+001, -1.708197E+001,  3.205490E-001
 -4.822499E+000, -2.280153E+002,  0.000000E+000,  1.281327E+001,  1.433875E+001, -1.480611E+001,  3.202596E-001
 -1.525323E+001, -2.298958E+002,  0.000000E+000,  2.041478E+001,  1.312995E+001, -1.366668E+001,  3.201535E-001
 -2.115208E+001, -2.292914E+002,  0.000000E+000,  2.563360E+001,  1.036839E+001, -1.451046E+001,  3.203976E-001
 -2.666136E+001, -2.280744E+002,  0.000000E+000,  3.031776E+001,  7.480084E+000, -1.583043E+001,  3.200500E-001
 -3.372029E+001, -2.269575E+002,  0.000000E+000,  3.520039E+001,  5.048611E+000, -1.718467E+001,  3.201548E-001
 -4.207392E+001, -2.258605E+002,  0.000000E+000,  4.014770E+001,  3.107602E+000, -1.864900E+001,  3.204082E-001
 -5.049182E+001, -2.243618E+002,  0.000000E+000,  4.495069E+001,  1.333180E+000, -1.987934E+001,  3.201409E-001
 -5.925258E+001, -2.221454E+002,  0.000000E+000,  4.930508E+001,  2.167220E-001, -2.056971E+001,  3.205767E-001
 -6.611622E+001, -2.181785E+002,  0.000000E+000,  5.296400E+001,  2.599543E-001, -2.034969E+001,  3.205565E-001
 -6.615461E+001, -2.045147E+002,  0.000000E+000,  5.720629E+001,  1.262372E+000, -1.930586E+001,  3.203490E-001
  4.118563E+001, -1.374305E+002,  0.000000E+000, -7.670014E+001,  1.083747E+001, -8.430320E+000,  3.204268E-001
 -6.015949E+001, -1.858053E+002,  0.000000E+000,  6.135506E+001,  1.979090E+000, -1.838735E+001,  3.201596E-001
  3.654220E+001, -1.313281E+002,  0.000000E+000, -7.944255E+001,  1.217941E+001, -8.753109E+000,  3.202239E-001
 -5.335938E+001, -1.655906E+002,  0.000000E+000,  6.563639E+001,  2.908705E+000, -1.727612E+001,  3.201480E-001
  3.146812E+001, -1.245054E+002,  0.000000E+000, -8.224272E+001,  1.355650E+001, -9.368082E+000,  3.202573E-001
 -4.580895E+001, -1.438248E+002,  0.000000E+000,  7.007507E+001,  3.976154E+000, -1.602981E+001,  3.201678E-001
  2.636959E+001, -1.170797E+002,  0.000000E+000, -8.504941E+001,  1.476377E+001, -1.041457E+001,  3.202706E-001
 -3.711708E+001, -1.203102E+002,  0.000000E+000,  7.456524E+001,  5.322614E+000, -1.456096E+001,  3.200177E-001
  2.455413E+001, -1.070177E+002,  0.000000E+000, -8.758937E+001,  1.421323E+001, -1.264671E+001,  3.201283E-001
 -2.657100E+001, -9.454494E+001,  0.000000E+000,  7.889008E+001,  6.880799E+000, -1.265891E+001,  3.204441E-001
  3.288536E+001, -8.542395E+001,  0.000000E+000, -8.983131E+001,  1.067087E+001, -1.536988E+001,  3.204562E-001
 -1.416449E+001, -6.656756E+001,  0.000000E+000,  8.302615E+001,  8.124959E+000, -1.069058E+001,  3.201549E-001
  4.094701E+001, -5.655663E+001,  0.000000E+000, -9.127205E+001,  5.767636E+000, -1.607521E+001,  3.202832E-001
 -8.782112E-001, -3.944159E+001,  0.000000E+000,  8.611735E+001,  7.522426E+000, -7.950829E+000,  3.202202E-001
  4.767844E+001, -2.625179E+001,  0.000000E+000, -9.225646E+001,  4.465017E-001, -1.620406E+001,  3.202030E-001
  1.214067E+001, -1.476737E+001,  0.000000E+000,  8.796270E+001,  4.560798E+000, -3.825988E+000,  3.201227E-001
  5.566076E+001,  2.710207E+000,  0.000000E+000, -9.248977E+001, -4.137381E+000, -1.478948E+001,  3.203242E-001
  2.513570E+001,  9.488802E+000,  0.000000E+000,  8.935898E+001,  7.505404E-001,  5.599361E-001,  3.204915E-001
  6.522039E+001,  2.999579E+001,  0.000000E+000, -9.198411E+001, -8.182910E+000, -1.176915E+001,  3.200095E-001
  3.768887E+001,  3.492219E+001,  0.000000E+000,  9.057983E+001, -3.193615E+000,  4.754933E+000,  3.202877E-001
  7.613061E+001,  5.540484E+001,  0.000000E+000, -9.094263E+001, -1.201120E+001, -7.650950E+000,  3.201080E-001
  4.986808E+001,  6.088016E+001,  0.000000E+000,  9.153428E+001, -7.053270E+000,  8.902552E+000,  3.202180E-001
  8.697277E+001,  8.007434E+001,  0.000000E+000, -8.966901E+001, -1.567348E+001, -3.374383E+000,  3.201995E-001
  5.420507E+001,  7.863915E+001,  0.000000E+000,  9.195812E+001, -9.500561E+000,  1.188098E+001,  3.204242E-001
  9.592695E+001,  1.042996E+002,  0.000000E+000, -8.716462E+001, -1.733867E+001,  3.335735E-001,  3.204768E-001
  4.759181E+001,  8.582369E+001,  0.000000E+000,  9.154970E+001, -1.013246E+001,  1.291225E+001,  3.204893E-001
  1.043827E+002,  1.288475E+002,  0.000000E+000, -8.366439E+001, -1.714549E+001,  3.219010E+000,  3.201454E-001
  3.997518E+001,  9.296768E+001,  0.000000E+000,  9.071218E+001, -1.107438E+001,  1.309763E+001,  3.202278E-001
  1.121468E+002,  1.528734E+002,  0.000000E+000, -7.964445E+001, -1.602479E+001,  5.804227E+000,  3.200157E-001
  3.083881E+001,  1.004271E+002,  0.000000E+000,  8.920185E+001, -1.220981E+001,  1.183131E+001,  3.204177E-001
  5.563543E+001, -1.452134E+002,  0.000000E+000, -7.139192E+001,  8.311375E+000, -7.053330E+000,  3.206625E-001
  6.078934E+001, -1.501802E+002,  0.000000E+000, -6.854362E+001,  6.869992E+000, -6.741007E+000,  3.203045E-001
  6.330988E+001, -1.545762E+002,  0.000000E+000, -6.583707E+001,  5.619069E+000, -7.454236E+000,  3.206370E-001
  6.324580E+001, -1.587358E+002,  0.000000E+000, -6.265128E+001,  4.654351E+000, -9.122974E+000,  3.204078E-001
  6.112606E+001, -1.659035E+002,  0.000000E+000, -5.678350E+001,  4.475175E+000, -1.100068E+001,  3.203918E-001
  5.575730E+001, -1.774498E+002,  0.000000E+000, -4.674440E+001,  6.501307E+000, -1.341774E+001,  3.203955E-001
  4.880910E+001, -1.906919E+002,  0.000000E+000, -3.505817E+001,  9.462587E+000, -1.613872E+001,  3.204260E-001
  4.126940E+001, -2.045377E+002,  0.000000E+000, -2.248085E+001,  1.267877E+001, -1.912025E+001,  3.202995E-001
  3.207186E+001, -2.152673E+002,  0.000000E+000, -1.130032E+001,  1.524658E+001, -2.028920E+001,  3.201407E-001
  2.094356E+001, -2.200815E+002,  0.000000E+000, -2.385018E+000,  1.590243E+001, -1.825971E+001,  3.200293E-001
  8.788016E+000, -2.240410E+002,  0.000000E+000,  6.990582E+000,  1.557841E+001, -1.594093E+001,  3.201099E-001
 -2.490562E+000, -2.269668E+002,  0.000000E+000,  1.583870E+001,  1.506758E+001, -1.373877E+001,  3.203852E-001
 -1.050629E+001, -2.272450E+002,  0.000000E+000,  2.271890E+001,  1.340410E+001, -1.322652E+001,  3.202636E-001
 -1.566111E+001, -2.259603E+002,  0.000000E+000,  2.742906E+001,  1.038123E+001, -1.438952E+001,  3.203153E-001
 -2.037604E+001, -2.244711E+002,  0.000000E+000,  3.163884E+001,  7.266177E+000, -1.578074E+001,  3.206152E-001
 -2.545551E+001, -2.230062E+002,  0.000000E+000,  3.573630E+001,  4.214162E+000, -1.721117E+001,  3.205486E-001
 -3.146606E+001, -2.208639E+002,  0.000000E+000,  4.002539E+001,  1.801157E+000, -1.857567E+001,  3.202236E-001
 -3.752069E+001, -2.181009E+002,  0.000000E+000,  4.397653E+001, -7.646498E-002, -1.980704E+001,  3.201799E-001
 -4.105740E+001, -2.082298E+002,  0.000000E+000,  4.886045E+001, -1.015899E+000, -2.009656E+001,  3.203915E-001
 -4.265359E+001, -1.938977E+002,  0.000000E+000,  5.425910E+001, -1.202129E+000, -2.014336E+001,  3.202921E-001
  5.238930E+001, -1.403372E+002,  0.000000E+000, -7.364065E+001,  9.491711E+000, -7.256214E+000,  3.206290E-001
 -3.669458E+001, -1.754146E+002,  0.000000E+000,  5.848747E+001, -1.068475E+000, -1.962856E+001,  3.204312E-001
  4.869793E+001, -1.345572E+002,  0.000000E+000, -7.617621E+001,  1.081606E+001, -7.545228E+000,  3.204150E-001
 -2.968993E+001, -1.551054E+002,  0.000000E+000,  6.283163E+001, -5.554939E-001, -1.877922E+001,  3.200472E-001
  4.452091E+001, -1.279990E+002,  0.000000E+000, -7.892901E+001,  1.225118E+001, -7.897642E+000,  3.204977E-001
 -2.180744E+001, -1.331520E+002,  0.000000E+000,  6.736061E+001,  1.867780E-001, -1.773186E+001,  3.201670E-001
  4.167747E+001, -1.187991E+002,  0.000000E+000, -8.190661E+001,  1.309495E+001, -8.304956E+000,  3.206369E-001
 -1.232482E+001, -1.087873E+002,  0.000000E+000,  7.207932E+001,  1.333152E+000, -1.646637E+001,  3.201194E-001
  4.980497E+001, -9.626272E+001,  0.000000E+000, -8.511895E+001,  1.117399E+001, -9.303506E+000,  3.204619E-001
 -5.190511E-001, -8.179479E+001,  0.000000E+000,  7.669019E+001,  2.740450E+000, -1.487100E+001,  3.202542E-001
  6.146181E+001, -7.199705E+001,  0.000000E+000, -8.756863E+001,  7.962657E+000, -1.181831E+001,  3.203368E-001
  1.250111E+001, -5.344286E+001,  0.000000E+000,  8.107791E+001,  4.308148E+000, -1.295122E+001,  3.204326E-001
  7.331798E+001, -4.685270E+001,  0.000000E+000, -8.956905E+001,  4.088193E+000, -1.450889E+001,  3.202091E-001
  2.679501E+001, -2.533755E+001,  0.000000E+000,  8.469470E+001,  4.808416E+000, -1.116199E+001,  3.200367E-001
  8.230878E+001, -1.815232E+001,  0.000000E+000, -9.102916E+001, -6.659455E-001, -1.564299E+001,  3.201296E-001
  4.076149E+001, -6.285484E-001,  0.000000E+000,  8.662494E+001,  2.206110E+000, -7.684586E+000,  3.202186E-001
  8.914857E+001,  1.192644E+001,  0.000000E+000, -9.190927E+001, -5.915337E+000, -1.564711E+001,  3.203386E-001
  5.415321E+001,  2.343829E+001,  0.000000E+000,  8.805611E+001, -1.651083E+000, -3.306119E+000,  3.201974E-001
  9.690981E+001,  4.075746E+001,  0.000000E+000, -9.207917E+001, -1.060876E+001, -1.425363E+001,  3.200250E-001
  6.760785E+001,  4.822438E+001,  0.000000E+000,  8.939097E+001, -5.633602E+000,  9.969004E-001,  3.200480E-001
  1.060293E+002,  6.771920E+001,  0.000000E+000, -9.150449E+001, -1.478503E+001, -1.116445E+001,  3.202502E-001
  7.551371E+001,  6.858890E+001,  0.000000E+000,  9.033387E+001, -8.499398E+000,  4.560899E+000,  3.204332E-001
  1.143664E+002,  9.071442E+001,  0.000000E+000, -9.034565E+001, -1.845442E+001, -7.062104E+000,  3.203190E-001
  7.016071E+001,  7.517545E+001,  0.000000E+000,  9.047888E+001, -8.930747E+000,  6.933719E+000,  3.203619E-001
  1.223324E+002,  1.148226E+002,  0.000000E+000, -8.816865E+001, -2.043032E+001, -3.337223E+000,  3.201367E-001
  6.480797E+001,  8.152329E+001,  0.000000E+000,  9.041870E+001, -9.438472E+000,  8.980388E+000,  3.204007E-001
  1.301189E+002,  1.396627E+002,  0.000000E+000, -8.480333E+001, -2.034253E+001, -3.382856E-001,  3.200038E-001
  5.857261E+001,  8.789840E+001,  0.000000E+000,  9.005984E+001, -1.010999E+001,  1.013322E+001,  3.204698E-001
  1.372398E+002,  1.634540E+002,  0.000000E+000, -8.087602E+001, -1.927564E+001,  2.276330E+000,  3.204154E-001
  5.161380E+001,  9.443207E+001,  0.000000E+000,  8.925366E+001, -1.055053E+001,  1.079463E+001,  3.203013E-001
  1.435166E+002,  1.856429E+002,  0.000000E+000, -7.684922E+001, -1.806370E+001,  4.826416E+000,  3.203674E-001
  4.311846E+001,  1.024836E+002,  0.000000E+000,  8.673233E+001, -9.758747E+000,  1.005165E+001,  3.202425E-001
  1.488960E+002,  2.056531E+002,  0.000000E+000, -7.300097E+001, -1.669673E+001,  7.047963E+000,  3.202554E-001
  3.483644E+001,  1.100244E+002,  0.000000E+000,  8.394838E+001, -8.762684E+000,  9.099026E+000,  3.200635E-001
  1.462996E+002,  2.140968E+002,  0.000000E+000, -7.025947E+001, -1.508232E+001,  8.937576E+000,  3.201921E-001
  2.715602E+001,  1.166553E+002,  0.000000E+000,  8.124353E+001, -7.630706E+000,  8.275347E+000,  3.204004E-001
  6.421697E+001, -1.466657E+002,  0.000000E+000, -6.899434E+001,  7.181999E+000, -6.174149E+000,  3.206615E-001
  6.702976E+001, -1.498771E+002,  0.000000E+000, -6.700521E+001,  6.068333E+000, -6.778546E+000,  3.200444E-001
  6.797880E+001, -1.525744E+002,  0.000000E+000, -6.531594E+001,  4.984454E+000, -8.212563E+000,  3.207317E-001
  6.775178E+001, -1.568759E+002,  0.000000E+000, -6.241035E+001,  3.903943E+000, -9.890974E+000,  3.202942E-001
  6.562754E+001, -1.634247E+002,  0.000000E+000, -5.738482E+001,  3.664209E+000, -1.175931E+001,  3.205524E-001
  6.070844E+001, -1.738565E+002,  0.000000E+000, -4.865791E+001,  5.228932E+000, -1.411139E+001,  3.206402E-001
  5.396321E+001, -1.866348E+002,  0.000000E+000, -3.750533E+001,  8.007435E+000, -1.679894E+001,  3.201200E-001
  4.698045E+001, -2.002097E+002,  0.000000E+000, -2.539369E+001,  1.103621E+001, -1.974319E+001,  3.201145E-001
  4.064359E+001, -2.114201E+002,  0.000000E+000, -1.458844E+001,  1.441556E+001, -2.154424E+001,  3.202890E-001
  3.330884E+001, -2.157117E+002,  0.000000E+000, -7.524250E+000,  1.650729E+001, -1.933767E+001,  3.207603E-001
  2.193869E+001, -2.198556E+002,  0.000000E+000,  1.176208E+000,  1.658615E+001, -1.718175E+001,  3.205216E-001
  9.951940E+000, -2.230812E+002,  0.000000E+000,  1.031676E+001,  1.597383E+001, -1.482494E+001,  3.202982E-001
  2.497050E+000, -2.224046E+002,  0.000000E+000,  1.854499E+001,  1.459747E+001, -1.315003E+001,  3.201117E-001
 -5.418448E-001, -2.193272E+002,  0.000000E+000,  2.412059E+001,  1.190664E+001, -1.319561E+001,  3.201123E-001
 -3.917690E+000, -2.165522E+002,  0.000000E+000,  2.861907E+001,  8.641006E+000, -1.413132E+001,  3.204842E-001
 -6.610793E+000, -2.129116E+002,  0.000000E+000,  3.272530E+001,  5.340141E+000, -1.531771E+001,  3.202176E-001
 -8.795647E+000, -2.088106E+002,  0.000000E+000,  3.636037E+001,  2.230489E+000, -1.647012E+001,  3.201726E-001
 -1.137101E+001, -2.028948E+002,  0.000000E+000,  4.023486E+001, -1.720348E-001, -1.741360E+001,  3.204407E-001
 -1.422579E+001, -1.935977E+002,  0.000000E+000,  4.489491E+001, -1.451267E+000, -1.803682E+001,  3.204290E-001
 -1.711144E+001, -1.814892E+002,  0.000000E+000,  5.017028E+001, -1.761818E+000, -1.844616E+001,  3.201811E-001
  6.248921E+001, -1.424268E+002,  0.000000E+000, -7.082811E+001,  8.225787E+000, -6.063955E+000,  3.206622E-001
 -1.061391E+001, -1.634935E+002,  0.000000E+000,  5.419286E+001, -1.953546E+000, -1.811045E+001,  3.204147E-001
  5.980047E+001, -1.371222E+002,  0.000000E+000, -7.306412E+001,  9.475269E+000, -6.211256E+000,  3.205853E-001
 -3.666259E+000, -1.437216E+002,  0.000000E+000,  5.859774E+001, -2.079429E+000, -1.776592E+001,  3.200708E-001
  5.690221E+001, -1.304602E+002,  0.000000E+000, -7.559311E+001,  1.067748E+001, -6.514009E+000,  3.200561E-001
  4.073589E+000, -1.216284E+002,  0.000000E+000,  6.345214E+001, -2.055201E+000, -1.725430E+001,  3.200602E-001
  6.431215E+001, -1.088784E+002,  0.000000E+000, -7.913295E+001,  1.000864E+001, -6.058566E+000,  3.203663E-001
  1.359131E+001, -9.655883E+001,  0.000000E+000,  6.866501E+001, -2.018021E+000, -1.666360E+001,  3.204118E-001
  7.565995E+001, -8.323861E+001,  0.000000E+000, -8.249726E+001,  8.400250E+000, -6.241011E+000,  3.200752E-001
  2.457262E+001, -6.959882E+001,  0.000000E+000,  7.390865E+001, -1.553414E+000, -1.584803E+001,  3.200262E-001
  8.763536E+001, -5.905716E+001,  0.000000E+000, -8.510987E+001,  5.440745E+000, -8.249018E+000,  3.204062E-001
  3.765447E+001, -4.105895E+001,  0.000000E+000,  7.873312E+001, -2.766001E-001, -1.438423E+001,  3.203362E-001
  1.002765E+002, -3.473954E+001,  0.000000E+000, -8.727931E+001,  1.760893E+000, -1.083181E+001,  3.204979E-001
  5.238256E+001, -1.131941E+001,  0.000000E+000,  8.310497E+001,  1.322913E+000, -1.274040E+001,  3.204250E-001
  1.130181E+002, -9.016247E+000,  0.000000E+000, -8.916822E+001, -2.410884E+000, -1.362590E+001,  3.204508E-001
  6.811594E+001,  1.374577E+001,  0.000000E+000,  8.527370E+001, -4.035606E-001, -1.088674E+001,  3.203296E-001
  1.231055E+002,  1.956340E+001,  0.000000E+000, -9.059924E+001, -7.129969E+000, -1.504959E+001,  3.204125E-001
  8.245032E+001,  3.716057E+001,  0.000000E+000,  8.661349E+001, -4.212430E+000, -7.102471E+000,  3.200788E-001
  1.297627E+002,  4.913378E+001,  0.000000E+000, -9.135258E+001, -1.234502E+001, -1.497511E+001,  3.201578E-001
  9.397111E+001,  5.937477E+001,  0.000000E+000,  8.783901E+001, -7.401696E+000, -2.864117E+000,  3.202627E-001
  1.352026E+002,  7.616795E+001,  0.000000E+000, -9.142785E+001, -1.712786E+001, -1.360484E+001,  3.200617E-001
  8.998958E+001,  6.595445E+001,  0.000000E+000,  8.838968E+001, -7.503326E+000,  2.399193E-002,  3.202339E-001
  1.417525E+002,  1.006019E+002,  0.000000E+000, -9.073088E+001, -2.111223E+001, -1.061856E+001,  3.201278E-001
  8.540433E+001,  7.221261E+001,  0.000000E+000,  8.854610E+001, -7.584236E+000,  2.513837E+000,  3.201669E-001
  1.488698E+002,  1.244459E+002,  0.000000E+000, -8.880894E+001, -2.341503E+001, -6.877557E+000,  3.200641E-001
  8.043019E+001,  7.857128E+001,  0.000000E+000,  8.847768E+001, -7.698039E+000,  5.073678E+000,  3.204209E-001
  1.555550E+002,  1.496255E+002,  0.000000E+000, -8.560479E+001, -2.349508E+001, -3.845074E+000,  3.200746E-001
  7.551629E+001,  8.432879E+001,  0.000000E+000,  8.829782E+001, -7.822148E+000,  7.264813E+000,  3.205462E-001
  1.619808E+002,  1.735703E+002,  0.000000E+000, -8.191668E+001, -2.254221E+001, -1.092665E+000,  3.201231E-001
  6.984933E+001,  9.009886E+001,  0.000000E+000,  8.789463E+001, -8.057250E+000,  8.754943E+000,  3.203641E-001
  1.674980E+002,  1.954433E+002,  0.000000E+000, -7.793088E+001, -2.120148E+001,  1.369621E+000,  3.203122E-001
  6.285870E+001,  9.666778E+001,  0.000000E+000,  8.676195E+001, -8.024733E+000,  9.390258E+000,  3.202732E-001
  1.686401E+002,  2.106477E+002,  0.000000E+000, -7.453666E+001, -1.962495E+001,  3.853160E+000,  3.204026E-001
  5.386047E+001,  1.040615E+002,  0.000000E+000,  8.410728E+001, -7.122433E+000,  8.562301E+000,  3.204251E-001
  1.622580E+002,  2.146237E+002,  0.000000E+000, -7.231739E+001, -1.781484E+001,  6.041307E+000,  3.205642E-001
  4.559969E+001,  1.109475E+002,  0.000000E+000,  8.122371E+001, -6.007759E+000,  7.753026E+000,  3.200850E-001
  1.554870E+002,  2.172890E+002,  0.000000E+000, -7.015486E+001, -1.635506E+001,  7.733437E+000,  3.201902E-001
  1.538586E+002,  2.193513E+002,  0.000000E+000, -6.839139E+001, -1.588532E+001,  8.232021E+000,  3.200612E-001
  1.512395E+002,  2.210652E+002,  0.000000E+000, -6.623932E+001, -1.528918E+001,  8.716389E+000,  3.203533E-001
  1.483721E+002,  2.229265E+002,  0.000000E+000, -6.367700E+001, -1.445882E+001,  9.269757E+000,  3.201931E-001
  1.451370E+002,  2.249971E+002,  0.000000E+000, -6.076523E+001, -1.345174E+001,  9.854317E+000,  3.204600E-001
  1.414692E+002,  2.271995E+002,  0.000000E+000, -5.757223E+001, -1.227004E+001,  1.047514E+001,  3.206835E-001
  1.374270E+002,  2.295180E+002,  0.000000E+000, -5.401826E+001, -1.104007E+001,  1.108728E+001,  3.205485E-001
  1.324842E+002,  2.316627E+002,  0.000000E+000, -4.993764E+001, -1.011521E+001,  1.129817E+001,  3.201173E-001
  1.259211E+002,  2.330748E+002,  0.000000E+000, -4.555296E+001, -9.585013E+000,  1.096952E+001,  3.204469E-001
  1.182903E+002,  2.342273E+002,  0.000000E+000, -4.060392E+001, -9.174034E+000,  1.037648E+001,  3.202889E-001
  1.082167E+002,  2.285521E+002,  0.000000E+000, -3.055190E+001, -9.080071E+000,  8.755758E+000,  3.202702E-001
  9.813991E+001,  2.136103E+002,  0.000000E+000, -1.490716E+001, -8.180233E+000,  8.077864E+000,  3.201551E-001
  8.838156E+001,  1.984731E+002,  0.000000E+000,  1.674676E-001, -7.396050E+000,  7.755296E+000,  3.201751E-001
  7.919038E+001,  1.840601E+002,  0.000000E+000,  1.436533E+001, -6.719530E+000,  7.498120E+000,  3.201100E-001
  7.064780E+001,  1.706509E+002,  0.000000E+000,  2.750897E+001, -6.104193E+000,  7.274085E+000,  3.202686E-001
  6.255745E+001,  1.580037E+002,  0.000000E+000,  3.973265E+001, -5.550874E+000,  7.039494E+000,  3.204038E-001
  5.519041E+001,  1.462166E+002,  0.000000E+000,  5.099177E+001, -4.936747E+000,  6.795023E+000,  3.201047E-001
  4.833140E+001,  1.352544E+002,  0.000000E+000,  6.144463E+001, -4.320796E+000,  6.576532E+000,  3.203511E-001
  4.224364E+001,  1.252787E+002,  0.000000E+000,  7.081842E+001, -3.881561E+000,  6.482329E+000,  3.204390E-001
  3.938583E+001,  1.181555E+002,  0.000000E+000,  7.706231E+001, -4.954542E+000,  7.061597E+000,  3.200876E-001
  6.992904E+001, -1.462346E+002,  0.000000E+000, -6.756740E+001,  6.499761E+000, -6.275143E+000,  3.206453E-001
  7.127979E+001, -1.483734E+002,  0.000000E+000, -6.621850E+001,  5.477064E+000, -7.470968E+000,  3.201502E-001
  7.218900E+001, -1.506097E+002,  0.000000E+000, -6.483408E+001,  4.400570E+000, -8.944769E+000,  3.202991E-001
  7.222042E+001, -1.543905E+002,  0.000000E+000, -6.221164E+001,  3.318191E+000, -1.058934E+001,  3.207569E-001
  7.064107E+001, -1.599658E+002,  0.000000E+000, -5.793271E+001,  2.930749E+000, -1.243226E+001,  3.205887E-001
  6.652735E+001, -1.691304E+002,  0.000000E+000, -5.042777E+001,  3.927078E+000, -1.459721E+001,  3.205650E-001
  6.020205E+001, -1.813655E+002,  0.000000E+000, -3.976128E+001,  6.553501E+000, -1.723919E+001,  3.207131E-001
  5.340543E+001, -1.946076E+002,  0.000000E+000, -2.808388E+001,  9.378043E+000, -2.007076E+001,  3.206846E-001
  4.654131E+001, -2.073937E+002,  0.000000E+000, -1.648274E+001,  1.240179E+001, -2.266672E+001,  3.200080E-001
  4.251816E+001, -2.116089E+002,  0.000000E+000, -1.105625E+001,  1.588302E+001, -2.045213E+001,  3.200841E-001
  3.466723E+001, -2.144090E+002,  0.000000E+000, -4.074384E+000,  1.711463E+001, -1.816954E+001,  3.201599E-001
  2.998911E+001, -2.101956E+002,  0.000000E+000,  6.417540E+000,  1.591036E+001, -1.431408E+001,  3.200123E-001
  2.694567E+001, -2.045530E+002,  0.000000E+000,  1.600368E+001,  1.409534E+001, -1.155724E+001,  3.205285E-001
  2.465813E+001, -2.006393E+002,  0.000000E+000,  2.193459E+001,  1.153096E+001, -1.111099E+001,  3.206599E-001
  2.248676E+001, -1.972468E+002,  0.000000E+000,  2.634101E+001,  8.488438E+000, -1.173563E+001,  3.205464E-001
  2.006711E+001, -1.934376E+002,  0.000000E+000,  3.040764E+001,  5.299382E+000, -1.284840E+001,  3.202723E-001
  1.746487E+001, -1.899400E+002,  0.000000E+000,  3.386222E+001,  2.373991E+000, -1.398979E+001,  3.201403E-001
  1.452489E+001, -1.859231E+002,  0.000000E+000,  3.717707E+001, -1.683001E-001, -1.497061E+001,  3.200557E-001
  1.087247E+001, -1.791137E+002,  0.000000E+000,  4.131120E+001, -1.720831E+000, -1.572471E+001,  3.200845E-001
  6.946909E+000, -1.692886E+002,  0.000000E+000,  4.627093E+001, -2.250230E+000, -1.630333E+001,  3.201695E-001
  6.990375E+001, -1.428710E+002,  0.000000E+000, -6.879972E+001,  7.342925E+000, -5.693906E+000,  3.206903E-001
  1.424772E+001, -1.514297E+002,  0.000000E+000,  4.997233E+001, -2.452575E+000, -1.585750E+001,  3.202074E-001
  6.921239E+001, -1.386707E+002,  0.000000E+000, -7.035743E+001,  8.324214E+000, -5.289779E+000,  3.200086E-001
  2.239910E+001, -1.315589E+002,  0.000000E+000,  5.403739E+001, -2.528398E+000, -1.537657E+001,  3.203324E-001
  7.647655E+001, -1.212999E+002,  0.000000E+000, -7.312699E+001,  7.897980E+000, -4.574195E+000,  3.202585E-001
  3.201067E+001, -1.089338E+002,  0.000000E+000,  5.852124E+001, -2.635389E+000, -1.491693E+001,  3.202376E-001
  8.750620E+001, -9.657816E+001,  0.000000E+000, -7.656157E+001,  7.075536E+000, -3.898797E+000,  3.203999E-001
  4.223555E+001, -8.414574E+001,  0.000000E+000,  6.342986E+001, -2.680687E+000, -1.430899E+001,  3.203387E-001
  9.916039E+001, -7.109333E+001,  0.000000E+000, -7.991206E+001,  5.781512E+000, -3.643634E+000,  3.202386E-001
  5.322432E+001, -5.761637E+001,  0.000000E+000,  6.864510E+001, -2.663444E+000, -1.368359E+001,  3.202047E-001
  1.117517E+002, -4.733730E+001,  0.000000E+000, -8.252711E+001,  3.063813E+000, -5.113298E+000,  3.205123E-001
  6.509422E+001, -2.923119E+001,  0.000000E+000,  7.414551E+001, -2.680430E+000, -1.280655E+001,  3.202138E-001
  1.247231E+002, -2.304644E+001,  0.000000E+000, -8.488585E+001, -2.187229E-001, -7.245781E+000,  3.203203E-001
  7.834257E+001,  5.430838E-001,  0.000000E+000,  7.940663E+001, -2.173183E+000, -1.161988E+001,  3.204871E-001
  1.383925E+002,  1.674476E+000,  0.000000E+000, -8.684020E+001, -4.208697E+000, -9.952086E+000,  3.201312E-001
  9.373885E+001,  2.888144E+001,  0.000000E+000,  8.320680E+001, -2.505732E+000, -1.040897E+001,  3.204905E-001
  1.517276E+002,  2.777984E+001,  0.000000E+000, -8.862998E+001, -8.634007E+000, -1.285038E+001,  3.202489E-001
  1.096270E+002,  5.102599E+001,  0.000000E+000,  8.442988E+001, -4.843377E+000, -8.831689E+000,  3.201883E-001
  1.606761E+002,  5.432209E+001,  0.000000E+000, -8.994450E+001, -1.335012E+001, -1.442873E+001,  3.204115E-001
  1.077275E+002,  5.791359E+001,  0.000000E+000,  8.522177E+001, -4.905213E+000, -6.299640E+000,  3.201567E-001
  1.632253E+002,  8.100889E+001,  0.000000E+000, -9.042853E+001, -1.831626E+001, -1.386070E+001,  3.200813E-001
  1.037346E+002,  6.421371E+001,  0.000000E+000,  8.578807E+001, -4.983849E+000, -3.222207E+000,  3.204900E-001
  1.651015E+002,  1.057557E+002,  0.000000E+000, -9.027058E+001, -2.265367E+001, -1.209841E+001,  3.205586E-001
  9.964918E+001,  7.008976E+001,  0.000000E+000,  8.604389E+001, -5.061361E+000, -6.370068E-001,  3.201457E-001
  1.676918E+002,  1.292005E+002,  0.000000E+000, -8.878313E+001, -2.516375E+001, -9.087403E+000,  3.205269E-001
  9.530116E+001,  7.598924E+001,  0.000000E+000,  8.613363E+001, -5.264200E+000,  1.635297E+000,  3.201685E-001
  1.705349E+002,  1.521567E+002,  0.000000E+000, -8.588359E+001, -2.525619E+001, -5.583763E+000,  3.206137E-001
  9.035987E+001,  8.168742E+001,  0.000000E+000,  8.614761E+001, -5.505857E+000,  3.991034E+000,  3.200992E-001
  1.730035E+002,  1.741982E+002,  0.000000E+000, -8.240483E+001, -2.413526E+001, -2.403451E+000,  3.202793E-001
  8.549470E+001,  8.684444E+001,  0.000000E+000,  8.604989E+001, -5.662960E+000,  6.124253E+000,  3.204489E-001
  1.750458E+002,  1.942997E+002,  0.000000E+000, -7.860496E+001, -2.256091E+001,  5.221674E-001,  3.203150E-001
  7.993617E+001,  9.214580E+001,  0.000000E+000,  8.566638E+001, -5.839064E+000,  7.725695E+000,  3.204614E-001
  1.768702E+002,  2.108030E+002,  0.000000E+000, -7.523072E+001, -2.110737E+001,  2.938735E+000,  3.203264E-001
  7.219390E+001,  9.826737E+001,  0.000000E+000,  8.416292E+001, -5.499695E+000,  8.096674E+000,  3.202509E-001
  1.754752E+002,  2.144567E+002,  0.000000E+000, -7.390754E+001, -2.017060E+001,  3.287801E+000,  3.201381E-001
  6.430339E+001,  1.062804E+002,  0.000000E+000,  8.018607E+001, -4.532799E+000,  7.301441E+000,  3.203057E-001
  1.692784E+002,  2.166806E+002,  0.000000E+000, -7.187410E+001, -1.875077E+001,  4.967692E+000,  3.206737E-001
  1.678698E+002,  2.182409E+002,  0.000000E+000, -7.018219E+001, -1.833459E+001,  5.361555E+000,  3.205456E-001
  1.664622E+002,  2.200007E+002,  0.000000E+000, -6.817937E+001, -1.776224E+001,  5.814644E+000,  3.201468E-001
  1.649470E+002,  2.218917E+002,  0.000000E+000, -6.596125E+001, -1.708175E+001,  6.297554E+000,  3.200370E-001
  1.628175E+002,  2.238685E+002,  0.000000E+000, -6.339906E+001, -1.625359E+001,  6.770541E+000,  3.201427E-001
  1.601520E+002,  2.259398E+002,  0.000000E+000, -6.038070E+001, -1.527794E+001,  7.234547E+000,  3.203292E-001
  1.571665E+002,  2.280986E+002,  0.000000E+000, -5.698357E+001, -1.419937E+001,  7.700421E+000,  3.205145E-001
  1.536312E+002,  2.299945E+002,  0.000000E+000, -5.335629E+001, -1.311750E+001,  8.015837E+000,  3.201885E-001
  1.493024E+002,  2.312101E+002,  0.000000E+000, -4.953823E+001, -1.204216E+001,  8.183108E+000,  3.202387E-001
  1.447032E+002,  2.308566E+002,  0.000000E+000, -4.408742E+001, -1.040300E+001,  8.616529E+000,  3.200821E-001
  1.365076E+002,  2.224506E+002,  0.000000E+000, -3.221636E+001, -9.175335E+000,  8.470857E+000,  3.203661E-001
  1.253598E+002,  2.076480E+002,  0.000000E+000, -1.671254E+001, -8.381632E+000,  8.253918E+000,  3.201253E-001
  1.148310E+002,  1.933945E+002,  0.000000E+000, -2.159338E+000, -7.598161E+000,  7.939579E+000,  3.203526E-001
  1.047469E+002,  1.796663E+002,  0.000000E+000,  1.169434E+001, -6.869371E+000,  7.645689E+000,  3.200197E-001
  9.540515E+001,  1.668329E+002,  0.000000E+000,  2.447442E+001, -6.289067E+000,  7.431597E+000,  3.204130E-001
  8.666962E+001,  1.546968E+002,  0.000000E+000,  3.642416E+001, -5.707250E+000,  7.215811E+000,  3.202501E-001
  7.854894E+001,  1.433648E+002,  0.000000E+000,  4.753725E+001, -5.151291E+000,  7.021633E+000,  3.200190E-001
  7.106263E+001,  1.328199E+002,  0.000000E+000,  5.779258E+001, -4.548077E+000,  6.818384E+000,  3.200721E-001
  6.403084E+001,  1.230562E+002,  0.000000E+000,  6.722162E+001, -3.964142E+000,  6.672071E+000,  3.200737E-001
  5.835656E+001,  1.146162E+002,  0.000000E+000,  7.518137E+001, -3.919517E+000,  6.781236E+000,  3.202393E-001
  7.396917E+001, -1.448721E+002,  0.000000E+000, -6.672585E+001,  5.995283E+000, -6.925526E+000,  3.207141E-001
  7.508250E+001, -1.466663E+002,  0.000000E+000, -6.558186E+001,  5.020272E+000, -8.237401E+000,  3.206270E-001
  7.616275E+001, -1.486259E+002,  0.000000E+000, -6.432109E+001,  3.968464E+000, -9.670820E+000,  3.204980E-001
  7.631931E+001, -1.518903E+002,  0.000000E+000, -6.201107E+001,  2.923201E+000, -1.125954E+001,  3.200882E-001
  7.529978E+001, -1.566445E+002,  0.000000E+000, -5.840091E+001,  2.274477E+000, -1.307598E+001,  3.205112E-001
  7.191531E+001, -1.646610E+002,  0.000000E+000, -5.187024E+001,  2.837755E+000, -1.510391E+001,  3.205215E-001
  6.645976E+001, -1.758744E+002,  0.000000E+000, -4.178515E+001,  5.196054E+000, -1.769820E+001,  3.206126E-001
  6.133353E+001, -1.872964E+002,  0.000000E+000, -3.039683E+001,  7.857283E+000, -2.042695E+001,  3.200306E-001
  5.874942E+001, -1.962837E+002,  0.000000E+000, -1.794440E+001,  1.047236E+001, -2.281440E+001,  3.202695E-001
  6.006757E+001, -1.956184E+002,  0.000000E+000, -1.126997E+001,  1.331937E+001, -2.008921E+001,  3.206844E-001
  6.089803E+001, -1.924993E+002,  0.000000E+000, -5.147551E+000,  1.558201E+001, -1.637109E+001,  3.201683E-001
  5.736496E+001, -1.882969E+002,  0.000000E+000,  4.679694E+000,  1.506374E+001, -1.256452E+001,  3.205011E-001
  5.333177E+001, -1.837836E+002,  0.000000E+000,  1.419855E+001,  1.346423E+001, -9.722087E+000,  3.202910E-001
  5.029147E+001, -1.805274E+002,  0.000000E+000,  2.018061E+001,  1.108723E+001, -9.078283E+000,  3.203030E-001
  4.770854E+001, -1.779751E+002,  0.000000E+000,  2.447319E+001,  8.289744E+000, -9.539103E+000,  3.201387E-001
  4.480772E+001, -1.750869E+002,  0.000000E+000,  2.834849E+001,  5.330514E+000, -1.053791E+001,  3.201556E-001
  4.155422E+001, -1.724605E+002,  0.000000E+000,  3.160959E+001,  2.529437E+000, -1.168801E+001,  3.203030E-001
  3.813731E+001, -1.697088E+002,  0.000000E+000,  3.459914E+001, -3.422630E-003, -1.274600E+001,  3.200119E-001
  3.413302E+001, -1.651225E+002,  0.000000E+000,  3.812665E+001, -1.825816E+000, -1.358680E+001,  3.203157E-001
  2.952548E+001, -1.574041E+002,  0.000000E+000,  4.269856E+001, -2.626742E+000, -1.428168E+001,  3.203446E-001
  7.523253E+001, -1.417881E+002,  0.000000E+000, -6.753208E+001,  6.708814E+000, -6.052343E+000,  3.203155E-001
  3.785441E+001, -1.395771E+002,  0.000000E+000,  4.608125E+001, -2.836742E+000, -1.370268E+001,  3.204015E-001
  8.508465E+001, -1.281088E+002,  0.000000E+000, -6.892270E+001,  6.143499E+000, -4.389072E+000,  3.206320E-001
  4.758528E+001, -1.189732E+002,  0.000000E+000,  4.986611E+001, -2.969321E+000, -1.316337E+001,  3.201143E-001
  9.723368E+001, -1.086577E+002,  0.000000E+000, -7.107003E+001,  5.198292E+000, -2.822495E+000,  3.205241E-001
  5.793934E+001, -9.669001E+001,  0.000000E+000,  5.399772E+001, -3.121106E+000, -1.261361E+001,  3.200762E-001
  1.087538E+002, -8.507962E+001,  0.000000E+000, -7.416345E+001,  4.310537E+000, -1.945641E+000,  3.204318E-001
  6.894836E+001, -7.260975E+001,  0.000000E+000,  5.847562E+001, -3.243376E+000, -1.203136E+001,  3.203386E-001
  1.205794E+002, -6.004626E+001,  0.000000E+000, -7.741290E+001,  3.163739E+000, -1.388907E+000,  3.203320E-001
  8.049962E+001, -4.653974E+001,  0.000000E+000,  6.334586E+001, -3.248619E+000, -1.133826E+001,  3.200156E-001
  1.334843E+002, -3.638348E+001,  0.000000E+000, -8.005773E+001,  8.222403E-001, -2.295922E+000,  3.205475E-001
  9.267255E+001, -1.890359E+001,  0.000000E+000,  6.847904E+001, -3.428819E+000, -1.041245E+001,  3.201903E-001
  1.469827E+002, -1.254332E+001,  0.000000E+000, -8.244430E+001, -2.233624E+000, -4.030258E+000,  3.204408E-001
  1.057786E+002,  1.071440E+001,  0.000000E+000,  7.389445E+001, -3.578879E+000, -9.338419E+000,  3.200263E-001
  1.606110E+002,  1.169205E+001,  0.000000E+000, -8.455419E+001, -5.992350E+000, -6.351011E+000,  3.205146E-001
  1.182374E+002,  4.020865E+001,  0.000000E+000,  7.917306E+001, -2.720516E+000, -8.269022E+000,  3.202798E-001
  1.735112E+002,  3.555273E+001,  0.000000E+000, -8.638177E+001, -1.029439E+001, -9.180872E+000,  3.204934E-001
  1.192942E+002,  5.203075E+001,  0.000000E+000,  8.185954E+001, -1.739298E+000, -7.964458E+000,  3.204776E-001
  1.746192E+002,  5.323870E+001,  0.000000E+000, -8.770613E+001, -1.262039E+001, -1.075524E+001,  3.204026E-001
  1.181863E+002,  5.699690E+001,  0.000000E+000,  8.254446E+001, -2.012934E+000, -7.579410E+000,  3.204449E-001
  1.748887E+002,  7.727957E+001,  0.000000E+000, -8.804840E+001, -1.705523E+001, -9.910517E+000,  3.205579E-001
  1.159311E+002,  6.249689E+001,  0.000000E+000,  8.306923E+001, -2.157239E+000, -6.033111E+000,  3.201250E-001
  1.748123E+002,  1.012888E+002,  0.000000E+000, -8.819384E+001, -2.145333E+001, -9.014812E+000,  3.206048E-001
  1.120280E+002,  6.826504E+001,  0.000000E+000,  8.346846E+001, -2.350870E+000, -3.434323E+000,  3.201854E-001
  1.747526E+002,  1.248167E+002,  0.000000E+000, -8.756721E+001, -2.468809E+001, -7.642653E+000,  3.202017E-001
  1.078638E+002,  7.367864E+001,  0.000000E+000,  8.367383E+001, -2.661054E+000, -1.045629E+000,  3.203410E-001
  1.752891E+002,  1.480873E+002,  0.000000E+000, -8.556528E+001, -2.568526E+001, -5.671263E+000,  3.203554E-001
  1.034155E+002,  7.885739E+001,  0.000000E+000,  8.382969E+001, -3.006524E+000,  9.588424E-001,  3.202398E-001
  1.768207E+002,  1.695587E+002,  0.000000E+000, -8.254260E+001, -2.494413E+001, -2.821060E+000,  3.204465E-001
  9.853825E+001,  8.389479E+001,  0.000000E+000,  8.391481E+001, -3.324434E+000,  3.117347E+000,  3.201635E-001
  1.780338E+002,  1.894746E+002,  0.000000E+000, -7.903935E+001, -2.345918E+001, -7.776279E-002,  3.204048E-001
  9.360019E+001,  8.862716E+001,  0.000000E+000,  8.382741E+001, -3.535373E+000,  5.205652E+000,  3.205371E-001
  1.794181E+002,  2.073853E+002,  0.000000E+000, -7.564423E+001, -2.201907E+001,  2.567780E+000,  3.203080E-001
  8.884066E+001,  9.423658E+001,  0.000000E+000,  8.252641E+001, -3.608540E+000,  6.794701E+000,  3.201221E-001
  1.793536E+002,  2.141732E+002,  0.000000E+000, -7.372923E+001, -2.106611E+001,  3.191954E+000,  3.200170E-001
  8.302181E+001,  1.028747E+002,  0.000000E+000,  7.808719E+001, -3.415653E+000,  7.013332E+000,  3.201013E-001
  1.782988E+002,  2.156676E+002,  0.000000E+000, -7.268332E+001, -2.053568E+001,  2.996179E+000,  3.201204E-001
  1.790051E+002,  2.170616E+002,  0.000000E+000, -7.129640E+001, -2.032204E+001,  2.985539E+000,  3.203038E-001
  1.791188E+002,  2.187117E+002,  0.000000E+000, -6.953215E+001, -1.989166E+001,  3.122999E+000,  3.200665E-001
  1.787495E+002,  2.205173E+002,  0.000000E+000, -6.754545E+001, -1.935760E+001,  3.385185E+000,  3.204508E-001
  1.782231E+002,  2.224193E+002,  0.000000E+000, -6.523741E+001, -1.875219E+001,  3.699594E+000,  3.206686E-001
  1.774237E+002,  2.244165E+002,  0.000000E+000, -6.261032E+001, -1.805609E+001,  4.019720E+000,  3.204639E-001
  1.761808E+002,  2.263321E+002,  0.000000E+000, -5.949472E+001, -1.713003E+001,  4.423051E+000,  3.205949E-001
  1.746516E+002,  2.269454E+002,  0.000000E+000, -5.547431E+001, -1.523911E+001,  5.560403E+000,  3.200775E-001
  1.728636E+002,  2.267823E+002,  0.000000E+000, -5.120294E+001, -1.304847E+001,  6.752814E+000,  3.204372E-001
  1.703110E+002,  2.248690E+002,  0.000000E+000, -4.542716E+001, -1.069568E+001,  7.958655E+000,  3.202031E-001
  1.624268E+002,  2.153833E+002,  0.000000E+000, -3.341483E+001, -9.152982E+000,  8.558581E+000,  3.201560E-001
  1.508004E+002,  2.015267E+002,  0.000000E+000, -1.849152E+001, -8.427297E+000,  8.356220E+000,  3.202930E-001
  1.395922E+002,  1.882067E+002,  0.000000E+000, -4.447113E+000, -7.751652E+000,  8.178116E+000,  3.201706E-001
  1.287529E+002,  1.752804E+002,  0.000000E+000,  9.032974E+000, -7.083985E+000,  7.920602E+000,  3.200060E-001
  1.186660E+002,  1.631412E+002,  0.000000E+000,  2.158257E+001, -6.478480E+000,  7.676350E+000,  3.201585E-001
  1.093065E+002,  1.515636E+002,  0.000000E+000,  3.329447E+001, -5.858897E+000,  7.421383E+000,  3.201524E-001
  1.006098E+002,  1.406870E+002,  0.000000E+000,  4.419550E+001, -5.308976E+000,  7.223066E+000,  3.203152E-001
  9.240249E+001,  1.305449E+002,  0.000000E+000,  5.429152E+001, -4.779916E+000,  7.100148E+000,  3.203239E-001
  8.482861E+001,  1.211173E+002,  0.000000E+000,  6.358075E+001, -4.205372E+000,  6.955052E+000,  3.202503E-001
  7.775279E+001,  1.123143E+002,  0.000000E+000,  7.221297E+001, -3.610370E+000,  6.822736E+000,  3.203774E-001
  7.887891E+001, -1.419497E+002,  0.000000E+000, -6.612819E+001,  5.364428E+000, -7.495319E+000,  3.203997E-001
  7.937236E+001, -1.442795E+002,  0.000000E+000, -6.501511E+001,  4.512939E+000, -8.879059E+000,  3.204174E-001
  8.015222E+001, -1.464425E+002,  0.000000E+000, -6.380385E+001,  3.529385E+000, -1.034686E+001,  3.205338E-001
  8.050865E+001, -1.491349E+002,  0.000000E+000, -6.178596E+001,  2.558598E+000, -1.195279E+001,  3.207468E-001
  8.058724E+001, -1.525457E+002,  0.000000E+000, -5.852854E+001,  1.780409E+000, -1.373126E+001,  3.204354E-001
  7.903725E+001, -1.585603E+002,  0.000000E+000, -5.247792E+001,  2.044548E+000, -1.567269E+001,  3.200249E-001
  7.830491E+001, -1.651858E+002,  0.000000E+000, -4.205142E+001,  3.939733E+000, -1.760985E+001,  3.200343E-001
  8.002971E+001, -1.698923E+002,  0.000000E+000, -2.951162E+001,  6.013041E+000, -1.913786E+001,  3.206781E-001
  8.181859E+001, -1.741061E+002,  0.000000E+000, -1.675992E+001,  8.240349E+000, -2.059962E+001,  3.200646E-001
  8.345456E+001, -1.731544E+002,  0.000000E+000, -1.002737E+001,  1.081109E+001, -1.813392E+001,  3.204081E-001
  8.507526E+001, -1.702949E+002,  0.000000E+000, -4.935266E+000,  1.346492E+001, -1.449530E+001,  3.201406E-001
  8.288949E+001, -1.671831E+002,  0.000000E+000,  3.044349E+000,  1.412095E+001, -1.094127E+001,  3.200440E-001
  7.824409E+001, -1.638537E+002,  0.000000E+000,  1.227080E+001,  1.288329E+001, -8.139056E+000,  3.205904E-001
  7.423092E+001, -1.616390E+002,  0.000000E+000,  1.836554E+001,  1.069944E+001, -7.292361E+000,  3.203677E-001
  7.074965E+001, -1.600548E+002,  0.000000E+000,  2.277351E+001,  8.211359E+000, -7.542318E+000,  3.205519E-001
  6.748650E+001, -1.581795E+002,  0.000000E+000,  2.643458E+001,  5.423184E+000, -8.410810E+000,  3.203074E-001
  6.373804E+001, -1.562454E+002,  0.000000E+000,  2.954566E+001,  2.735090E+000, -9.555749E+000,  3.201954E-001
  5.993358E+001, -1.543074E+002,  0.000000E+000,  3.234138E+001,  2.757759E-001, -1.065113E+001,  3.205658E-001
  5.579231E+001, -1.511851E+002,  0.000000E+000,  3.544478E+001, -1.729060E+000, -1.155242E+001,  3.203781E-001
  5.100512E+001, -1.450838E+002,  0.000000E+000,  3.957928E+001, -2.741503E+000, -1.230636E+001,  3.203077E-001
  9.019398E+001, -1.289682E+002,  0.000000E+000, -6.690951E+001,  4.596965E+000, -5.524461E+000,  3.203074E-001
  6.093943E+001, -1.273774E+002,  0.000000E+000,  4.247719E+001, -3.230755E+000, -1.169278E+001,  3.204998E-001
  1.028709E+002, -1.138654E+002,  0.000000E+000, -6.787079E+001,  3.735359E+000, -3.389003E+000,  3.203759E-001
  7.116623E+001, -1.070272E+002,  0.000000E+000,  4.599415E+001, -3.402362E+000, -1.108542E+001,  3.203409E-001
  1.158157E+002, -9.605424E+001,  0.000000E+000, -6.944816E+001,  2.756290E+000, -1.471171E+000,  3.202401E-001
  8.205663E+001, -8.519839E+001,  0.000000E+000,  4.978424E+001, -3.590984E+000, -1.043360E+001,  3.202435E-001
  1.281714E+002, -7.438132E+001,  0.000000E+000, -7.196868E+001,  1.716439E+000, -1.589099E-001,  3.205274E-001
  9.365033E+001, -6.161194E+001,  0.000000E+000,  5.391884E+001, -3.719573E+000, -9.789838E+000,  3.203988E-001
  1.402043E+002, -5.002918E+001,  0.000000E+000, -7.504038E+001,  6.428824E-001,  5.804673E-001,  3.202364E-001
  1.055924E+002, -3.651667E+001,  0.000000E+000,  5.836587E+001, -3.859083E+000, -9.084987E+000,  3.200088E-001
  1.530566E+002, -2.631916E+001,  0.000000E+000, -7.772328E+001, -1.412337E+000,  1.895298E-001,  3.204915E-001
  1.181451E+002, -9.464425E+000,  0.000000E+000,  6.317428E+001, -4.100000E+000, -8.135552E+000,  3.201054E-001
  1.665077E+002, -3.310596E+000,  0.000000E+000, -8.006465E+001, -4.333265E+000, -1.161586E+000,  3.206272E-001
  1.274708E+002,  1.655810E+001,  0.000000E+000,  6.843954E+001, -3.331864E+000, -7.278655E+000,  3.204764E-001
  1.795052E+002,  1.994294E+001,  0.000000E+000, -8.234990E+001, -7.728885E+000, -3.146138E+000,  3.200350E-001
  1.277310E+002,  3.611736E+001,  0.000000E+000,  7.432862E+001, -1.028612E+000, -6.793418E+000,  3.205339E-001
  1.849655E+002,  3.690112E+001,  0.000000E+000, -8.424586E+001, -1.012167E+001, -5.250112E+000,  3.207064E-001
  1.257637E+002,  5.045366E+001,  0.000000E+000,  7.881808E+001,  1.140709E+000, -6.398305E+000,  3.201795E-001
  1.830929E+002,  5.037802E+001,  0.000000E+000, -8.546464E+001, -1.162204E+001, -6.903652E+000,  3.204024E-001
  1.248301E+002,  5.654087E+001,  0.000000E+000,  7.990197E+001,  1.278934E+000, -6.454017E+000,  3.200788E-001
  1.826800E+002,  7.295520E+001,  0.000000E+000, -8.581062E+001, -1.584267E+001, -6.180980E+000,  3.204656E-001
  1.239606E+002,  6.127611E+001,  0.000000E+000,  8.037526E+001,  9.128775E-001, -6.412670E+000,  3.201377E-001
  1.822552E+002,  9.537102E+001,  0.000000E+000, -8.591831E+001, -1.999828E+001, -5.329999E+000,  3.206624E-001
  1.219969E+002,  6.622020E+001,  0.000000E+000,  8.082233E+001,  5.284135E-001, -5.607915E+000,  3.204721E-001
  1.816140E+002,  1.181135E+002,  0.000000E+000, -8.551232E+001, -2.315738E+001, -4.530008E+000,  3.201986E-001
  1.182799E+002,  7.130643E+001,  0.000000E+000,  8.114540E+001,  1.166172E-001, -3.443535E+000,  3.200322E-001
  1.808633E+002,  1.412856E+002,  0.000000E+000, -8.413235E+001, -2.462844E+001, -3.725949E+000,  3.203367E-001
  1.140824E+002,  7.617521E+001,  0.000000E+000,  8.138619E+001, -3.143556E-001, -1.245069E+000,  3.203339E-001
  1.803707E+002,  1.635483E+002,  0.000000E+000, -8.211180E+001, -2.501333E+001, -2.552878E+000,  3.206000E-001
  1.098064E+002,  8.089224E+001,  0.000000E+000,  8.154520E+001, -7.242227E-001,  5.719569E-001,  3.205211E-001
  1.805574E+002,  1.837559E+002,  0.000000E+000, -7.927065E+001, -2.424710E+001, -6.626136E-001,  3.202610E-001
  1.057953E+002,  8.617380E+001,  0.000000E+000,  8.108898E+001, -1.087038E+000,  2.545507E+000,  3.202514E-001
  1.815438E+002,  2.018914E+002,  0.000000E+000, -7.591031E+001, -2.288065E+001,  1.806139E+000,  3.200210E-001
  1.029777E+002,  9.309089E+001,  0.000000E+000,  7.867114E+001, -1.671928E+000,  4.650363E+000,  3.202098E-001
  1.819711E+002,  2.137593E+002,  0.000000E+000, -7.331359E+001, -2.177975E+001,  3.360882E+000,  3.200021E-001
  1.011431E+002,  1.014579E+002,  0.000000E+000,  7.432693E+001, -2.978179E+000,  6.609705E+000,  3.202576E-001
  1.813666E+002,  2.157353E+002,  0.000000E+000, -7.230930E+001, -2.122677E+001,  3.184090E+000,  3.207297E-001
  1.825430E+002,  2.170539E+002,  0.000000E+000, -7.087976E+001, -2.101916E+001,  3.074450E+000,  3.203074E-001
  1.838468E+002,  2.183991E+002,  0.000000E+000, -6.933782E+001, -2.081332E+001,  2.944701E+000,  3.206292E-001
  1.853493E+002,  2.197627E+002,  0.000000E+000, -6.756708E+001, -2.055722E+001,  2.727227E+000,  3.204751E-001
  1.871812E+002,  2.210328E+002,  0.000000E+000, -6.547991E+001, -2.008003E+001,  2.655737E+000,  3.201660E-001
  1.897250E+002,  2.218107E+002,  0.000000E+000, -6.276910E+001, -1.905435E+001,  3.105328E+000,  3.200895E-001
  1.923312E+002,  2.222588E+002,  0.000000E+000, -5.948967E+001, -1.756948E+001,  3.975793E+000,  3.201373E-001
  1.937682E+002,  2.220677E+002,  0.000000E+000, -5.585885E+001, -1.559259E+001,  5.330973E+000,  3.202997E-001
  1.939261E+002,  2.208879E+002,  0.000000E+000, -5.152199E+001, -1.320296E+001,  6.731231E+000,  3.205532E-001
  1.925049E+002,  2.176187E+002,  0.000000E+000, -4.539617E+001, -1.069706E+001,  8.381388E+000,  3.202628E-001
  1.854667E+002,  2.087761E+002,  0.000000E+000, -3.443916E+001, -9.077420E+000,  8.966968E+000,  3.203941E-001
  1.738017E+002,  1.955908E+002,  0.000000E+000, -2.007223E+001, -8.389089E+000,  8.645617E+000,  3.200449E-001
  1.624940E+002,  1.830790E+002,  0.000000E+000, -6.651343E+000, -7.779060E+000,  8.412629E+000,  3.202420E-001
  1.512873E+002,  1.708532E+002,  0.000000E+000,  6.398951E+000, -7.164201E+000,  8.150517E+000,  3.204175E-001
  1.406748E+002,  1.593322E+002,  0.000000E+000,  1.866574E+001, -6.574014E+000,  7.900399E+000,  3.200826E-001
  1.306573E+002,  1.484161E+002,  0.000000E+000,  3.017422E+001, -5.974301E+000,  7.677595E+000,  3.200711E-001
  1.212500E+002,  1.381240E+002,  0.000000E+000,  4.090152E+001, -5.444312E+000,  7.523426E+000,  3.204718E-001
  1.124762E+002,  1.284203E+002,  0.000000E+000,  5.085475E+001, -4.936123E+000,  7.412416E+000,  3.203344E-001
  1.043045E+002,  1.193128E+002,  0.000000E+000,  6.006257E+001, -4.401066E+000,  7.247662E+000,  3.201774E-001
  9.668219E+001,  1.108077E+002,  0.000000E+000,  6.857351E+001, -3.784439E+000,  7.068660E+000,  3.203896E-001
  9.389494E+001, -1.286001E+002,  0.000000E+000, -6.567367E+001,  3.268494E+000, -6.769162E+000,  3.203565E-001
  9.412273E+001, -1.311385E+002,  0.000000E+000, -6.459426E+001,  2.434989E+000, -8.163046E+000,  3.205267E-001
  9.434557E+001, -1.337936E+002,  0.000000E+000, -6.332963E+001,  1.523368E+000, -9.687053E+000,  3.201784E-001
  9.454540E+001, -1.365940E+002,  0.000000E+000, -6.114049E+001,  7.005134E-001, -1.138241E+001,  3.205736E-001
  9.484407E+001, -1.397461E+002,  0.000000E+000, -5.771082E+001,  4.204861E-002, -1.311441E+001,  3.205956E-001
  9.593670E+001, -1.433316E+002,  0.000000E+000, -5.062957E+001,  4.727851E-001, -1.456540E+001,  3.203244E-001
  9.806342E+001, -1.470162E+002,  0.000000E+000, -3.961126E+001,  2.212477E+000, -1.593888E+001,  3.205543E-001
  1.003521E+002, -1.506349E+002,  0.000000E+000, -2.769888E+001,  4.156078E+000, -1.725823E+001,  3.200007E-001
  1.025062E+002, -1.539961E+002,  0.000000E+000, -1.561359E+001,  6.231095E+000, -1.856958E+001,  3.201037E-001
  1.041235E+002, -1.532045E+002,  0.000000E+000, -8.894983E+000,  8.602252E+000, -1.639764E+001,  3.203960E-001
  1.056963E+002, -1.505596E+002,  0.000000E+000, -4.112201E+000,  1.111628E+001, -1.289900E+001,  3.205066E-001
  1.058535E+002, -1.476929E+002,  0.000000E+000,  1.720720E+000,  1.316241E+001, -9.458466E+000,  3.201869E-001
  1.013887E+002, -1.450707E+002,  0.000000E+000,  1.035926E+001,  1.235951E+001, -6.654694E+000,  3.205079E-001
  9.699307E+001, -1.433845E+002,  0.000000E+000,  1.653342E+001,  1.040139E+001, -5.672385E+000,  3.203999E-001
  9.305060E+001, -1.423584E+002,  0.000000E+000,  2.101189E+001,  8.134689E+000, -5.771906E+000,  3.205358E-001
  8.936395E+001, -1.414114E+002,  0.000000E+000,  2.459002E+001,  5.538221E+000, -6.482439E+000,  3.201466E-001
  8.534688E+001, -1.400826E+002,  0.000000E+000,  2.765669E+001,  2.967247E+000, -7.572750E+000,  3.205793E-001
  8.120830E+001, -1.386643E+002,  0.000000E+000,  3.036573E+001,  5.615793E-001, -8.679008E+000,  3.200139E-001
  7.693017E+001, -1.367154E+002,  0.000000E+000,  3.311559E+001, -1.588404E+000, -9.660855E+000,  3.200129E-001
  7.193579E+001, -1.325082E+002,  0.000000E+000,  3.674305E+001, -2.870196E+000, -1.044727E+001,  3.201003E-001
  1.059584E+002, -1.149813E+002,  0.000000E+000, -6.636509E+001,  2.406566E+000, -4.769200E+000,  3.206320E-001
  8.255472E+001, -1.156565E+002,  0.000000E+000,  3.915837E+001, -3.552573E+000, -9.812234E+000,  3.201720E-001
  1.188962E+002, -1.003228E+002,  0.000000E+000, -6.709139E+001,  1.501530E+000, -2.589564E+000,  3.206739E-001
  9.322259E+001, -9.580276E+001,  0.000000E+000,  4.237898E+001, -3.801344E+000, -9.124265E+000,  3.202348E-001
  1.322640E+002, -8.348781E+001,  0.000000E+000, -6.828692E+001,  4.892193E-001, -5.409308E-001,  3.203458E-001
  1.044958E+002, -7.438191E+001,  0.000000E+000,  4.587671E+001, -3.995264E+000, -8.413071E+000,  3.202262E-001
  1.456172E+002, -6.386637E+001,  0.000000E+000, -7.013368E+001, -6.365427E-001,  1.275894E+000,  3.205022E-001
  1.163212E+002, -5.148246E+001,  0.000000E+000,  4.967983E+001, -4.202759E+000, -7.657281E+000,  3.205209E-001
  1.579676E+002, -4.091015E+001,  0.000000E+000, -7.286342E+001, -1.800785E+000,  2.336883E+000,  3.204883E-001
  1.284681E+002, -2.723330E+001,  0.000000E+000,  5.378060E+001, -4.359769E+000, -6.925519E+000,  3.203213E-001
  1.704579E+002, -1.751372E+001,  0.000000E+000, -7.556453E+001, -3.620926E+000,  2.387571E+000,  3.201015E-001
  1.355178E+002, -5.092066E+000,  0.000000E+000,  5.855788E+001, -3.256986E+000, -6.364210E+000,  3.203143E-001
  1.830587E+002,  4.491506E+000,  0.000000E+000, -7.789404E+001, -6.328146E+000,  1.316237E+000,  3.205044E-001
  1.356314E+002,  1.296650E+001,  0.000000E+000,  6.409951E+001, -1.244369E+000, -5.910654E+000,  3.202946E-001
  1.936512E+002,  2.542478E+001,  0.000000E+000, -8.026405E+001, -8.938093E+000, -2.622538E-002,  3.206179E-001
  1.340405E+002,  2.989377E+001,  0.000000E+000,  6.974452E+001,  8.223129E-001, -5.510625E+000,  3.205679E-001
  1.912626E+002,  3.460535E+001,  0.000000E+000, -8.217609E+001, -9.469341E+000, -2.006210E+000,  3.202898E-001
  1.316131E+002,  4.632036E+001,  0.000000E+000,  7.503242E+001,  3.033131E+000, -5.181111E+000,  3.200992E-001
  1.893284E+002,  4.726709E+001,  0.000000E+000, -8.338135E+001, -1.078997E+001, -3.559511E+000,  3.206725E-001
  1.302402E+002,  5.593417E+001,  0.000000E+000,  7.732089E+001,  4.002541E+000, -5.054206E+000,  3.203133E-001
  1.888666E+002,  6.888581E+001,  0.000000E+000, -8.377303E+001, -1.478719E+001, -2.828222E+000,  3.206850E-001
  1.294695E+002,  6.066968E+001,  0.000000E+000,  7.795017E+001,  3.880008E+000, -5.217383E+000,  3.205882E-001
  1.883299E+002,  9.000989E+001,  0.000000E+000, -8.389100E+001, -1.872602E+001, -2.053697E+000,  3.202097E-001
  1.287351E+002,  6.501312E+001,  0.000000E+000,  7.833990E+001,  3.479798E+000, -5.398696E+000,  3.203342E-001
  1.876489E+002,  1.117101E+002,  0.000000E+000, -8.339894E+001, -2.141671E+001, -1.375740E+000,  3.200025E-001
  1.269942E+002,  6.937422E+001,  0.000000E+000,  7.860940E+001,  2.913934E+000, -4.913681E+000,  3.203197E-001
  1.867655E+002,  1.339354E+002,  0.000000E+000, -8.200126E+001, -2.260076E+001, -7.441408E-001,  3.204891E-001
  1.237311E+002,  7.379819E+001,  0.000000E+000,  7.892364E+001,  2.399742E+000, -3.260592E+000,  3.203559E-001
  1.857904E+002,  1.554541E+002,  0.000000E+000, -8.031118E+001, -2.325830E+001, -8.774153E-002,  3.206309E-001
  1.197592E+002,  7.857790E+001,  0.000000E+000,  7.902587E+001,  1.908003E+000, -1.255958E+000,  3.202638E-001
  1.847357E+002,  1.761152E+002,  0.000000E+000, -7.822059E+001, -2.338763E+001,  6.362024E-001,  3.201683E-001
  1.170595E+002,  8.520871E+001,  0.000000E+000,  7.736663E+001,  1.166806E+000,  6.211058E-001,  3.202852E-001
  1.841868E+002,  1.955197E+002,  0.000000E+000, -7.570423E+001, -2.326526E+001,  1.610224E+000,  3.200544E-001
  1.156938E+002,  9.325533E+001,  0.000000E+000,  7.390602E+001, -8.017379E-002,  2.549003E+000,  3.200587E-001
  1.843818E+002,  2.116134E+002,  0.000000E+000, -7.290180E+001, -2.245344E+001,  3.222090E+000,  3.202092E-001
  1.148770E+002,  1.020804E+002,  0.000000E+000,  6.913347E+001, -1.937302E+000,  4.734196E+000,  3.200874E-001
  1.838929E+002,  2.155921E+002,  0.000000E+000, -7.168628E+001, -2.175531E+001,  3.367499E+000,  3.203844E-001
  1.852194E+002,  2.169344E+002,  0.000000E+000, -7.022027E+001, -2.156039E+001,  3.270091E+000,  3.200637E-001
  1.871186E+002,  2.179064E+002,  0.000000E+000, -6.840324E+001, -2.111954E+001,  3.409278E+000,  3.200842E-001
  1.897488E+002,  2.183994E+002,  0.000000E+000, -6.610778E+001, -2.017057E+001,  4.062789E+000,  3.201446E-001
  1.929577E+002,  2.184188E+002,  0.000000E+000, -6.340213E+001, -1.878853E+001,  5.131513E+000,  3.200797E-001
  1.964226E+002,  2.183339E+002,  0.000000E+000, -6.046197E+001, -1.728816E+001,  6.339099E+000,  3.204973E-001
  1.999781E+002,  2.181518E+002,  0.000000E+000, -5.728813E+001, -1.568119E+001,  7.557051E+000,  3.206807E-001
  2.030785E+002,  2.173498E+002,  0.000000E+000, -5.409638E+001, -1.395253E+001,  8.717473E+000,  3.206091E-001
  2.053131E+002,  2.150218E+002,  0.000000E+000, -4.984887E+001, -1.180882E+001,  9.881174E+000,  3.203160E-001
  2.065028E+002,  2.112374E+002,  0.000000E+000, -4.434317E+001, -9.770519E+000,  1.087241E+001,  3.201541E-001
  2.022365E+002,  2.028041E+002,  0.000000E+000, -3.457035E+001, -8.572768E+000,  1.076059E+001,  3.201567E-001
  1.923480E+002,  1.902893E+002,  0.000000E+000, -2.119093E+001, -8.204688E+000,  9.853817E+000,  3.201611E-001
  1.818226E+002,  1.783641E+002,  0.000000E+000, -8.448216E+000, -7.740075E+000,  9.240261E+000,  3.200770E-001
  1.709198E+002,  1.667677E+002,  0.000000E+000,  4.051834E+000, -7.190193E+000,  8.760396E+000,  3.201383E-001
  1.602624E+002,  1.557487E+002,  0.000000E+000,  1.587477E+001, -6.598802E+000,  8.277789E+000,  3.200051E-001
  1.500098E+002,  1.453854E+002,  0.000000E+000,  2.699800E+001, -6.005001E+000,  7.882324E+000,  3.204104E-001
  1.400615E+002,  1.356217E+002,  0.000000E+000,  3.748098E+001, -5.422966E+000,  7.591281E+000,  3.203250E-001
  1.306938E+002,  1.264345E+002,  0.000000E+000,  4.728084E+001, -4.854078E+000,  7.361340E+000,  3.200672E-001
  1.219351E+002,  1.177571E+002,  0.000000E+000,  5.641659E+001, -4.345960E+000,  7.184200E+000,  3.202012E-001
  1.134338E+002,  1.097337E+002,  0.000000E+000,  6.475469E+001, -3.662986E+000,  6.839882E+000,  3.203142E-001
  1.083033E+002, -1.156524E+002,  0.000000E+000, -6.524114E+001,  1.264294E+000, -6.029973E+000,  3.205064E-001
  1.089902E+002, -1.176355E+002,  0.000000E+000, -6.419152E+001,  3.684567E-001, -7.329263E+000,  3.205051E-001
  1.097567E+002, -1.197080E+002,  0.000000E+000, -6.269532E+001, -5.870733E-001, -8.790710E+000,  3.200284E-001
  1.105463E+002, -1.219180E+002,  0.000000E+000, -6.036414E+001, -1.451331E+000, -1.039430E+001,  3.206788E-001
  1.115572E+002, -1.244949E+002,  0.000000E+000, -5.625830E+001, -1.880958E+000, -1.188396E+001,  3.205525E-001
  1.134552E+002, -1.274414E+002,  0.000000E+000, -4.816226E+001, -1.052843E+000, -1.314648E+001,  3.200456E-001
  1.160800E+002, -1.303241E+002,  0.000000E+000, -3.730304E+001,  6.598424E-001, -1.438380E+001,  3.203535E-001
  1.185801E+002, -1.332595E+002,  0.000000E+000, -2.602050E+001,  2.543452E+000, -1.558144E+001,  3.206351E-001
  1.208347E+002, -1.361023E+002,  0.000000E+000, -1.463474E+001,  4.407681E+000, -1.676036E+001,  3.201800E-001
  1.224732E+002, -1.354501E+002,  0.000000E+000, -7.886258E+000,  6.615967E+000, -1.485824E+001,  3.204241E-001
  1.239869E+002, -1.329508E+002,  0.000000E+000, -3.325542E+000,  9.025916E+000, -1.148789E+001,  3.203722E-001
  1.252061E+002, -1.302037E+002,  0.000000E+000,  1.368512E+000,  1.158317E+001, -8.163656E+000,  3.206048E-001
  1.221561E+002, -1.279543E+002,  0.000000E+000,  8.624582E+000,  1.178193E+001, -5.379098E+000,  3.200939E-001
  1.176553E+002, -1.266634E+002,  0.000000E+000,  1.481505E+001,  1.007126E+001, -4.215786E+000,  3.205932E-001
  1.135483E+002, -1.260083E+002,  0.000000E+000,  1.926530E+001,  7.946811E+000, -4.195655E+000,  3.205732E-001
  1.096325E+002, -1.255766E+002,  0.000000E+000,  2.286898E+001,  5.694309E+000, -4.774240E+000,  3.206323E-001
  1.054464E+002, -1.248865E+002,  0.000000E+000,  2.592279E+001,  3.189288E+000, -5.756580E+000,  3.203526E-001
  1.010269E+002, -1.240648E+002,  0.000000E+000,  2.851239E+001,  8.401058E-001, -6.862009E+000,  3.206435E-001
  9.650010E+001, -1.229263E+002,  0.000000E+000,  3.106449E+001, -1.341761E+000, -7.890106E+000,  3.202935E-001
  9.140969E+001, -1.203272E+002,  0.000000E+000,  3.421257E+001, -2.895395E+000, -8.739123E+000,  3.202826E-001
  1.203864E+002, -1.020886E+002,  0.000000E+000, -6.589255E+001,  3.551171E-001, -4.060144E+000,  3.205914E-001
  1.026023E+002, -1.040886E+002,  0.000000E+000,  3.623373E+001, -3.702351E+000, -8.023908E+000,  3.200982E-001
  1.333477E+002, -8.756356E+001,  0.000000E+000, -6.654919E+001, -5.904016E-001, -1.931492E+000,  3.203954E-001
  1.138603E+002, -8.530904E+001,  0.000000E+000,  3.895323E+001, -4.164475E+000, -7.262005E+000,  3.204626E-001
  1.471327E+002, -7.171845E+001,  0.000000E+000, -6.735662E+001, -1.641731E+000,  2.795994E-001,  3.205415E-001
  1.252053E+002, -6.436858E+001,  0.000000E+000,  4.223043E+001, -4.418952E+000, -6.496383E+000,  3.201590E-001
  1.607834E+002, -5.363954E+001,  0.000000E+000, -6.872592E+001, -2.847391E+000,  2.303797E+000,  3.201704E-001
  1.363610E+002, -4.260478E+001,  0.000000E+000,  4.579119E+001, -4.460559E+000, -5.768899E+000,  3.204307E-001
  1.737637E+002, -3.258994E+001,  0.000000E+000, -7.092415E+001, -4.146760E+000,  3.846524E+000,  3.201528E-001
  1.420258E+002, -2.352338E+001,  0.000000E+000,  5.007661E+001, -3.136177E+000, -5.377864E+000,  3.202721E-001
  1.854374E+002, -1.001284E+001,  0.000000E+000, -7.365034E+001, -5.637972E+000,  4.328796E+000,  3.202105E-001
  1.423537E+002, -7.513725E+000,  0.000000E+000,  5.502911E+001, -1.270909E+000, -5.125930E+000,  3.201108E-001
  1.973922E+002,  1.098938E+001,  0.000000E+000, -7.590024E+001, -8.135926E+000,  3.533451E+000,  3.206574E-001
  1.414101E+002,  8.512971E+000,  0.000000E+000,  6.027018E+001,  5.612920E-001, -4.802733E+000,  3.200913E-001
  1.994085E+002,  2.504245E+001,  0.000000E+000, -7.858291E+001, -8.471020E+000,  3.093033E+000,  3.203264E-001
  1.392906E+002,  2.399132E+001,  0.000000E+000,  6.554796E+001,  2.476836E+000, -4.492705E+000,  3.201470E-001
  1.965698E+002,  3.215255E+001,  0.000000E+000, -8.025226E+001, -8.930183E+000,  8.390869E-001,  3.205263E-001
  1.370904E+002,  3.985383E+001,  0.000000E+000,  7.056871E+001,  4.427269E+000, -4.145870E+000,  3.201393E-001
  1.945704E+002,  4.445835E+001,  0.000000E+000, -8.142528E+001, -1.013021E+001, -6.727409E-001,  3.204842E-001
  1.352263E+002,  5.421581E+001,  0.000000E+000,  7.457087E+001,  6.109094E+000, -3.911500E+000,  3.200086E-001
  1.940654E+002,  6.491153E+001,  0.000000E+000, -8.183800E+001, -1.389459E+001,  5.470010E-002,  3.205408E-001
  1.342424E+002,  5.995853E+001,  0.000000E+000,  7.561216E+001,  6.322177E+000, -3.981977E+000,  3.203420E-001
  1.934747E+002,  8.517251E+001,  0.000000E+000, -8.199970E+001, -1.757506E+001,  8.308617E-001,  3.206360E-001
  1.334832E+002,  6.428154E+001,  0.000000E+000,  7.614397E+001,  6.089630E+000, -4.184537E+000,  3.204498E-001
  1.927564E+002,  1.060556E+002,  0.000000E+000, -8.135347E+001, -1.978387E+001,  1.439234E+000,  3.200871E-001
  1.327728E+002,  6.834131E+001,  0.000000E+000,  7.640782E+001,  5.566680E+000, -4.500012E+000,  3.202260E-001
  1.918967E+002,  1.272753E+002,  0.000000E+000, -8.000910E+001, -2.077734E+001,  1.959027E+000,  3.201783E-001
  1.311988E+002,  7.209623E+001,  0.000000E+000,  7.658368E+001,  4.942283E+000, -4.147377E+000,  3.200461E-001
  1.909113E+002,  1.478858E+002,  0.000000E+000, -7.835858E+001, -2.138987E+001,  2.473800E+000,  3.203590E-001
  1.292535E+002,  7.740088E+001,  0.000000E+000,  7.583126E+001,  4.278610E+000, -2.868688E+000,  3.204533E-001
  1.899870E+002,  1.680312E+002,  0.000000E+000, -7.617718E+001, -2.156930E+001,  3.024616E+000,  3.201274E-001
  1.275368E+002,  8.510161E+001,  0.000000E+000,  7.320836E+001,  3.056300E+000, -8.019232E-001,  3.200778E-001
  1.891321E+002,  1.870870E+002,  0.000000E+000, -7.395267E+001, -2.169430E+001,  3.665830E+000,  3.205980E-001
  1.269801E+002,  9.442709E+001,  0.000000E+000,  6.858243E+001,  1.009695E+000,  1.304743E+000,  3.202133E-001
  1.883566E+002,  2.050534E+002,  0.000000E+000, -7.173866E+001, -2.172440E+001,  4.296606E+000,  3.205093E-001
  1.263768E+002,  1.027810E+002,  0.000000E+000,  6.417888E+001, -8.421579E-001,  3.162480E+000,  3.200752E-001
  1.868384E+002,  2.144691E+002,  0.000000E+000, -7.073817E+001, -2.185149E+001,  3.919791E+000,  3.203451E-001
  1.894334E+002,  2.151504E+002,  0.000000E+000, -6.859075E+001, -2.087416E+001,  4.787142E+000,  3.201386E-001
  1.924112E+002,  2.152316E+002,  0.000000E+000, -6.617830E+001, -1.963910E+001,  5.895127E+000,  3.204320E-001
  1.955623E+002,  2.150727E+002,  0.000000E+000, -6.361616E+001, -1.834402E+001,  7.052062E+000,  3.206126E-001
  1.988859E+002,  2.148230E+002,  0.000000E+000, -6.088151E+001, -1.696489E+001,  8.265770E+000,  3.205883E-001
  2.024028E+002,  2.144723E+002,  0.000000E+000, -5.796129E+001, -1.548220E+001,  9.551539E+000,  3.204375E-001
  2.060240E+002,  2.139749E+002,  0.000000E+000, -5.489576E+001, -1.389652E+001,  1.090415E+001,  3.203573E-001
  2.090365E+002,  2.125187E+002,  0.000000E+000, -5.165526E+001, -1.213011E+001,  1.228648E+001,  3.203544E-001
  2.112531E+002,  2.100447E+002,  0.000000E+000, -4.745910E+001, -9.982360E+000,  1.369648E+001,  3.200966E-001
  2.123002E+002,  2.063316E+002,  0.000000E+000, -4.211912E+001, -7.968218E+000,  1.481155E+001,  3.202131E-001
  2.089037E+002,  1.980955E+002,  0.000000E+000, -3.306839E+001, -6.987508E+000,  1.437090E+001,  3.202417E-001
  2.013144E+002,  1.860971E+002,  0.000000E+000, -2.100332E+001, -6.984738E+000,  1.271189E+001,  3.201697E-001
  1.933225E+002,  1.745827E+002,  0.000000E+000, -9.445309E+000, -6.929755E+000,  1.116269E+001,  3.202452E-001
  1.842476E+002,  1.635154E+002,  0.000000E+000,  2.032608E+000, -6.665698E+000,  9.878406E+000,  3.204130E-001
  1.742242E+002,  1.530440E+002,  0.000000E+000,  1.324963E+001, -6.190343E+000,  8.887881E+000,  3.202416E-001
  1.639161E+002,  1.432440E+002,  0.000000E+000,  2.388975E+001, -5.559749E+000,  8.082338E+000,  3.200021E-001
  1.536696E+002,  1.340988E+002,  0.000000E+000,  3.388022E+001, -4.833894E+000,  7.288053E+000,  3.204001E-001
  1.437813E+002,  1.255647E+002,  0.000000E+000,  4.322561E+001, -4.063407E+000,  6.454249E+000,  3.203687E-001
  1.344160E+002,  1.175593E+002,  0.000000E+000,  5.198103E+001, -3.309548E+000,  5.674146E+000,  3.200605E-001
  1.254948E+002,  1.100431E+002,  0.000000E+000,  6.017752E+001, -2.600182E+000,  5.052220E+000,  3.200035E-001
  1.215924E+002, -1.036459E+002,  0.000000E+000, -6.485119E+001, -6.127875E-001, -5.334748E+000,  3.202349E-001
  1.227320E+002, -1.051320E+002,  0.000000E+000, -6.377300E+001, -1.584906E+000, -6.615005E+000,  3.201171E-001
  1.239397E+002, -1.067631E+002,  0.000000E+000, -6.202521E+001, -2.541308E+000, -7.994223E+000,  3.202352E-001
  1.252462E+002, -1.084688E+002,  0.000000E+000, -5.946372E+001, -3.367596E+000, -9.456241E+000,  3.204946E-001
  1.269864E+002, -1.105160E+002,  0.000000E+000, -5.447040E+001, -3.486420E+000, -1.071147E+001,  3.205244E-001
  1.295819E+002, -1.127964E+002,  0.000000E+000, -4.555072E+001, -2.337186E+000, -1.184413E+001,  3.203724E-001
  1.322828E+002, -1.151704E+002,  0.000000E+000, -3.521502E+001, -6.938268E-001, -1.294687E+001,  3.202990E-001
  1.348030E+002, -1.176673E+002,  0.000000E+000, -2.457977E+001,  1.055100E+000, -1.405598E+001,  3.203854E-001
  1.371563E+002, -1.201290E+002,  0.000000E+000, -1.375906E+001,  2.784579E+000, -1.513747E+001,  3.206677E-001
  1.388464E+002, -1.195640E+002,  0.000000E+000, -6.957213E+000,  4.862554E+000, -1.347499E+001,  3.201658E-001
  1.402020E+002, -1.172590E+002,  0.000000E+000, -2.605923E+000,  7.159976E+000, -1.024018E+001,  3.200951E-001
  1.414302E+002, -1.146554E+002,  0.000000E+000,  1.797638E+000,  9.565650E+000, -7.084749E+000,  3.205179E-001
  1.408050E+002, -1.123638E+002,  0.000000E+000,  7.179314E+000,  1.107834E+001, -4.243572E+000,  3.206911E-001
  1.364162E+002, -1.113924E+002,  0.000000E+000,  1.318568E+001,  9.759528E+000, -2.966715E+000,  3.200497E-001
  1.321896E+002, -1.110381E+002,  0.000000E+000,  1.762831E+001,  7.727439E+000, -2.793162E+000,  3.206125E-001
  1.280609E+002, -1.109274E+002,  0.000000E+000,  2.127188E+001,  5.653680E+000, -3.211329E+000,  3.201830E-001
  1.238667E+002, -1.108357E+002,  0.000000E+000,  2.427999E+001,  3.319291E+000, -4.096071E+000,  3.203231E-001
  1.192476E+002, -1.105179E+002,  0.000000E+000,  2.680984E+001,  1.073987E+000, -5.185003E+000,  3.205890E-001
  1.145165E+002, -1.099593E+002,  0.000000E+000,  2.923238E+001, -1.060152E+000, -6.231665E+000,  3.202332E-001
  1.094169E+002, -1.084506E+002,  0.000000E+000,  3.202505E+001, -2.788586E+000, -7.124817E+000,  3.203024E-001
  1.336722E+002, -9.019008E+001,  0.000000E+000, -6.545607E+001, -1.545980E+000, -3.400636E+000,  3.200220E-001
  1.353413E+002, -9.122075E+001,  0.000000E+000, -6.443139E+001, -2.583669E+000, -4.642108E+000,  3.207561E-001
  1.371070E+002, -9.244458E+001,  0.000000E+000, -6.298808E+001, -3.740319E+000, -6.048467E+000,  3.205671E-001
  1.389183E+002, -9.373107E+001,  0.000000E+000, -6.065933E+001, -4.740330E+000, -7.491563E+000,  3.201802E-001
  1.411411E+002, -9.519070E+001,  0.000000E+000, -5.645580E+001, -5.269331E+000, -8.824507E+000,  3.201737E-001
  1.442029E+002, -9.702874E+001,  0.000000E+000, -4.795167E+001, -4.418304E+000, -9.956353E+000,  3.206723E-001
  1.472252E+002, -9.922964E+001,  0.000000E+000, -3.721443E+001, -2.730889E+000, -1.106545E+001,  3.202011E-001
  1.500081E+002, -1.016032E+002,  0.000000E+000, -2.615583E+001, -9.912139E-001, -1.219011E+001,  3.204214E-001
  1.521249E+002, -1.043762E+002,  0.000000E+000, -1.480137E+001,  1.050446E+000, -1.315156E+001,  3.200066E-001
  1.524171E+002, -1.059904E+002,  0.000000E+000, -6.221684E+000,  3.887217E+000, -1.207573E+001,  3.205805E-001
  1.545958E+002, -1.029769E+002,  0.000000E+000, -1.585380E+000,  6.099293E+000, -8.722074E+000,  3.206509E-001
  1.566398E+002, -9.960791E+001,  0.000000E+000,  3.061411E+000,  8.377971E+000, -5.458998E+000,  3.200902E-001
  1.574404E+002, -9.672206E+001,  0.000000E+000,  7.931535E+000,  1.016993E+001, -2.520133E+000,  3.200108E-001
  1.536021E+002, -9.572109E+001,  0.000000E+000,  1.349918E+001,  8.701042E+000, -1.470325E+000,  3.201525E-001
  1.488482E+002, -9.582187E+001,  0.000000E+000,  1.794253E+001,  6.477460E+000, -1.466681E+000,  3.203210E-001
  1.440171E+002, -9.627302E+001,  0.000000E+000,  2.148460E+001,  4.223551E+000, -2.111238E+000,  3.204210E-001
  1.387985E+002, -9.662488E+001,  0.000000E+000,  2.446642E+001,  1.716234E+000, -3.205596E+000,  3.200909E-001
  1.333970E+002, -9.659113E+001,  0.000000E+000,  2.713308E+001, -6.182178E-001, -4.384966E+000,  3.205051E-001
  1.278175E+002, -9.598096E+001,  0.000000E+000,  2.987297E+001, -2.681304E+000, -5.453497E+000,  3.202134E-001
  1.211984E+002, -9.319548E+001,  0.000000E+000,  3.354599E+001, -3.830710E+000, -6.327867E+000,  3.204311E-001
  1.465878E+002, -7.583429E+001,  0.000000E+000, -6.606295E+001, -2.547463E+000, -1.338157E+000,  3.203610E-001
  1.488012E+002, -7.633071E+001,  0.000000E+000, -6.506185E+001, -3.665017E+000, -2.518024E+000,  3.205905E-001
  1.511131E+002, -7.695064E+001,  0.000000E+000, -6.387607E+001, -4.935905E+000, -3.883414E+000,  3.200276E-001
  1.535906E+002, -7.783897E+001,  0.000000E+000, -6.179108E+001, -6.218670E+000, -5.344223E+000,  3.200136E-001
  1.562861E+002, -7.875589E+001,  0.000000E+000, -5.819973E+001, -7.155349E+000, -6.762747E+000,  3.203379E-001
  1.596280E+002, -8.018311E+001,  0.000000E+000, -5.048268E+001, -6.743989E+000, -7.852049E+000,  3.201897E-001
  1.632108E+002, -8.200401E+001,  0.000000E+000, -3.941148E+001, -5.117610E+000, -8.973578E+000,  3.206959E-001
  1.650748E+002, -8.495600E+001,  0.000000E+000, -2.815110E+001, -2.836160E+000, -9.757864E+000,  3.203656E-001
  1.645439E+002, -8.956299E+001,  0.000000E+000, -1.686127E+001,  4.694952E-001, -9.956841E+000,  3.201034E-001
  1.632030E+002, -9.387994E+001,  0.000000E+000, -6.309372E+000,  3.982901E+000, -9.477130E+000,  3.205636E-001
  1.647997E+002, -9.211290E+001,  0.000000E+000, -2.998888E-002,  6.739656E+000, -6.780227E+000,  3.202385E-001
  1.677995E+002, -8.784084E+001,  0.000000E+000,  4.842822E+000,  8.995426E+000, -3.378447E+000,  3.200301E-001
  1.697753E+002, -8.402089E+001,  0.000000E+000,  9.571505E+000,  1.044809E+001, -5.266718E-001,  3.203992E-001
  1.678632E+002, -8.187420E+001,  0.000000E+000,  1.443021E+001,  8.416621E+000,  2.268915E-001,  3.203132E-001
  1.641569E+002, -8.134580E+001,  0.000000E+000,  1.845937E+001,  5.652617E+000, -2.054983E-002,  3.200845E-001
  1.597513E+002, -8.145799E+001,  0.000000E+000,  2.173981E+001,  2.871877E+000, -9.722768E-001,  3.205124E-001
  1.544572E+002, -8.152162E+001,  0.000000E+000,  2.467107E+001,  6.624255E-002, -2.256802E+000,  3.200798E-001
  1.485880E+002, -8.138690E+001,  0.000000E+000,  2.753779E+001, -2.420263E+000, -3.481025E+000,  3.204221E-001
  1.415416E+002, -7.984193E+001,  0.000000E+000,  3.106913E+001, -4.091628E+000, -4.497184E+000,  3.201368E-001
  1.328752E+002, -7.549450E+001,  0.000000E+000,  3.579518E+001, -4.558807E+000, -5.516552E+000,  3.200481E-001
  1.601197E+002, -6.067456E+001,  0.000000E+000, -6.671573E+001, -3.683217E+000,  8.706284E-001,  3.201125E-001
  1.629039E+002, -6.063097E+001,  0.000000E+000, -6.571146E+001, -4.918277E+000, -2.664012E-001,  3.206383E-001
  1.658177E+002, -6.065923E+001,  0.000000E+000, -6.459902E+001, -6.262669E+000, -1.531389E+000,  3.201331E-001
  1.688933E+002, -6.093835E+001,  0.000000E+000, -6.292964E+001, -7.795741E+000, -3.035314E+000,  3.206713E-001
  1.720059E+002, -6.151578E+001,  0.000000E+000, -5.979023E+001, -9.093616E+000, -4.496268E+000,  3.205541E-001
  1.755867E+002, -6.253800E+001,  0.000000E+000, -5.297552E+001, -9.163503E+000, -5.636023E+000,  3.203247E-001
  1.772583E+002, -6.560953E+001,  0.000000E+000, -4.215414E+001, -6.726386E+000, -6.123967E+000,  3.204422E-001
  1.764998E+002, -7.040342E+001,  0.000000E+000, -3.107780E+001, -3.316616E+000, -6.218144E+000,  3.206034E-001
  1.746522E+002, -7.607094E+001,  0.000000E+000, -1.962729E+001,  4.972886E-001, -6.035441E+000,  3.203445E-001
  1.717668E+002, -8.251587E+001,  0.000000E+000, -7.991183E+000,  4.455921E+000, -5.753407E+000,  3.207014E-001
  1.709022E+002, -8.480500E+001,  0.000000E+000,  1.769347E+000,  8.107971E+000, -4.474906E+000,  3.207444E-001
  1.739793E+002, -8.059957E+001,  0.000000E+000,  7.067415E+000,  1.053057E+001, -9.585433E-001,  3.207844E-001
  1.757744E+002, -7.701805E+001,  0.000000E+000,  1.155153E+001,  1.165609E+001,  1.624965E+000,  3.204361E-001
  1.731830E+002, -7.575008E+001,  0.000000E+000,  1.572855E+001,  9.163259E+000,  1.640469E+000,  3.206886E-001
  1.695961E+002, -7.547527E+001,  0.000000E+000,  1.905075E+001,  6.012517E+000,  6.753711E-001,  3.201879E-001
  1.657262E+002, -7.472143E+001,  0.000000E+000,  2.224515E+001,  2.774544E+000, -5.493477E-001,  3.201494E-001
  1.615207E+002, -7.318906E+001,  0.000000E+000,  2.523464E+001, -1.651980E-001, -1.830605E+000,  3.205925E-001
  1.564746E+002, -7.030160E+001,  0.000000E+000,  2.879079E+001, -2.565974E+000, -2.889152E+000,  3.201620E-001
  1.503546E+002, -6.376797E+001,  0.000000E+000,  3.357677E+001, -3.902584E+000, -3.822629E+000,  3.204798E-001
  1.427396E+002, -5.608940E+001,  0.000000E+000,  3.894914E+001, -4.446411E+000, -4.839874E+000,  3.203793E-001
  1.739155E+002, -4.365229E+001,  0.000000E+000, -6.778181E+001, -4.954043E+000,  3.002398E+000,  3.206341E-001
  1.776364E+002, -4.405812E+001,  0.000000E+000, -6.643054E+001, -6.231893E+000,  2.159737E+000,  3.202564E-001
  1.809149E+002, -4.365653E+001,  0.000000E+000, -6.535045E+001, -7.614520E+000,  9.628458E-001,  3.202507E-001
  1.845038E+002, -4.326537E+001,  0.000000E+000, -6.395883E+001, -9.185557E+000, -4.462469E-001,  3.204979E-001
  1.873299E+002, -4.390521E+001,  0.000000E+000, -6.131163E+001, -1.043180E+001, -1.686699E+000,  3.202503E-001
  1.889483E+002, -4.612534E+001,  0.000000E+000, -5.589378E+001, -1.022409E+001, -2.409525E+000,  3.203697E-001
  1.881981E+002, -5.088164E+001,  0.000000E+000, -4.587695E+001, -7.150649E+000, -2.319450E+000,  3.204984E-001
  1.860457E+002, -5.682331E+001,  0.000000E+000, -3.463140E+001, -3.348893E+000, -2.004574E+000,  3.205089E-001
  1.833473E+002, -6.329923E+001,  0.000000E+000, -2.301698E+001,  7.058769E-001, -1.612952E+000,  3.203133E-001
  1.805075E+002, -6.976170E+001,  0.000000E+000, -1.070207E+001,  4.862912E+000, -1.133666E+000,  3.203023E-001
  1.778205E+002, -7.535531E+001,  0.000000E+000,  1.627399E+000,  8.990911E+000, -6.361487E-001,  3.204606E-001
  1.782059E+002, -7.513113E+001,  0.000000E+000,  9.121917E+000,  1.208916E+001,  1.331227E+000,  3.206754E-001
  1.788443E+002, -7.322724E+001,  0.000000E+000,  1.258611E+001,  1.254584E+001,  2.777898E+000,  3.201811E-001
  1.760106E+002, -7.261706E+001,  0.000000E+000,  1.604626E+001,  9.565927E+000,  2.140068E+000,  3.207225E-001
  1.721541E+002, -7.218648E+001,  0.000000E+000,  1.946791E+001,  6.043555E+000,  9.665073E-001,  3.203856E-001
  1.677551E+002, -7.065592E+001,  0.000000E+000,  2.304229E+001,  2.628948E+000, -3.461041E-001,  3.200652E-001
  1.631050E+002, -6.685987E+001,  0.000000E+000,  2.697522E+001,  1.138911E-001, -1.485059E+000,  3.204136E-001
  1.579156E+002, -5.830922E+001,  0.000000E+000,  3.228693E+001, -1.290874E+000, -2.467122E+000,  3.203530E-001
  1.527170E+002, -4.811962E+001,  0.000000E+000,  3.776533E+001, -2.221756E+000, -3.485793E+000,  3.200987E-001
  1.472947E+002, -3.922058E+001,  0.000000E+000,  4.284834E+001, -3.072217E+000, -4.443473E+000,  3.200397E-001
  1.869758E+002, -2.492542E+001,  0.000000E+000, -6.941863E+001, -6.182373E+000,  4.942834E+000,  3.206157E-001
  1.923414E+002, -2.593653E+001,  0.000000E+000, -6.755146E+001, -7.550657E+000,  4.630735E+000,  3.200540E-001
  1.957530E+002, -2.625728E+001,  0.000000E+000, -6.623844E+001, -8.555208E+000,  3.955855E+000,  3.206840E-001
  1.976099E+002, -2.675454E+001,  0.000000E+000, -6.506101E+001, -9.207433E+000,  3.196103E+000,  3.204452E-001
  1.990446E+002, -2.802902E+001,  0.000000E+000, -6.308638E+001, -9.791576E+000,  2.392507E+000,  3.202329E-001
  1.995739E+002, -3.106684E+001,  0.000000E+000, -5.914423E+001, -9.925025E+000,  1.810658E+000,  3.200749E-001
  1.976298E+002, -3.683447E+001,  0.000000E+000, -5.034512E+001, -7.286917E+000,  2.001228E+000,  3.200366E-001
  1.950241E+002, -4.324845E+001,  0.000000E+000, -3.872769E+001, -3.217842E+000,  2.607262E+000,  3.204154E-001
  1.922034E+002, -4.991779E+001,  0.000000E+000, -2.670420E+001,  1.041641E+000,  3.327366E+000,  3.203970E-001
  1.894288E+002, -5.632359E+001,  0.000000E+000, -1.369690E+001,  5.326093E+000,  3.917335E+000,  3.201291E-001
  1.856938E+002, -6.365809E+001,  0.000000E+000, -6.895491E-001,  9.338371E+000,  3.992744E+000,  3.202645E-001
  1.816802E+002, -7.029577E+001,  0.000000E+000,  9.743525E+000,  1.262568E+001,  3.097175E+000,  3.205401E-001
  1.814194E+002, -7.000364E+001,  0.000000E+000,  1.320260E+001,  1.313708E+001,  3.438950E+000,  3.206249E-001
  1.783655E+002, -6.980500E+001,  0.000000E+000,  1.633747E+001,  9.964895E+000,  2.468989E+000,  3.206353E-001
  1.740736E+002, -6.824923E+001,  0.000000E+000,  2.035617E+001,  5.924580E+000,  1.215588E+000,  3.202477E-001
  1.690926E+002, -6.369449E+001,  0.000000E+000,  2.502959E+001,  2.998639E+000,  1.279114E-001,  3.204303E-001
  1.634707E+002, -5.399334E+001,  0.000000E+000,  3.100402E+001,  1.541495E+000, -9.887584E-001,  3.205755E-001
  1.577750E+002, -4.340138E+001,  0.000000E+000,  3.700378E+001,  5.251923E-001, -2.189145E+000,  3.200346E-001
  1.525314E+002, -3.368030E+001,  0.000000E+000,  4.241367E+001, -4.430793E-001, -3.250099E+000,  3.201083E-001
  1.477536E+002, -2.481122E+001,  0.000000E+000,  4.728336E+001, -1.318420E+000, -4.234780E+000,  3.205309E-001
  1.987327E+002, -3.630823E+000,  0.000000E+000, -7.185445E+001, -7.554713E+000,  5.990084E+000,  3.201138E-001
  2.038893E+002, -7.052517E+000,  0.000000E+000, -6.952245E+001, -7.948203E+000,  7.333013E+000,  3.206418E-001
  2.063298E+002, -1.007752E+001,  0.000000E+000, -6.780526E+001, -7.943855E+000,  7.867961E+000,  3.205060E-001
  2.078353E+002, -1.205536E+001,  0.000000E+000, -6.637859E+001, -8.032632E+000,  7.806300E+000,  3.200540E-001
  2.085365E+002, -1.360708E+001,  0.000000E+000, -6.490904E+001, -8.398152E+000,  7.237598E+000,  3.206149E-001
  2.085421E+002, -1.652673E+001,  0.000000E+000, -6.232076E+001, -8.776370E+000,  6.672238E+000,  3.205190E-001
  2.071199E+002, -2.204444E+001,  0.000000E+000, -5.534497E+001, -7.186721E+000,  6.856681E+000,  3.202854E-001
  2.043360E+002, -2.890537E+001,  0.000000E+000, -4.328215E+001, -2.983618E+000,  7.708373E+000,  3.201911E-001
  2.015670E+002, -3.552431E+001,  0.000000E+000, -3.053443E+001,  1.389386E+000,  8.500163E+000,  3.205969E-001
  1.980544E+002, -4.289832E+001,  0.000000E+000, -1.734081E+001,  5.435301E+000,  8.614265E+000,  3.203047E-001
  1.925583E+002, -5.269598E+001,  0.000000E+000, -4.657760E+000,  8.815243E+000,  7.319970E+000,  3.203008E-001
  1.861036E+002, -6.352930E+001,  0.000000E+000,  7.654959E+000,  1.190488E+001,  5.202109E+000,  3.200423E-001
  1.832652E+002, -6.726299E+001,  0.000000E+000,  1.373730E+001,  1.319312E+001,  4.054444E+000,  3.207512E-001
  1.804153E+002, -6.607417E+001,  0.000000E+000,  1.709212E+001,  1.003675E+001,  2.764435E+000,  3.205121E-001
  1.750028E+002, -6.040057E+001,  0.000000E+000,  2.280335E+001,  6.696081E+000,  1.646185E+000,  3.202250E-001
  1.687711E+002, -4.933049E+001,  0.000000E+000,  2.963259E+001,  4.895605E+000,  5.041464E-001,  3.202328E-001
  1.629313E+002, -3.809222E+001,  0.000000E+000,  3.604248E+001,  3.553158E+000, -7.587731E-001,  3.202084E-001
  1.574287E+002, -2.801530E+001,  0.000000E+000,  4.186645E+001,  2.422760E+000, -1.953792E+000,  3.204912E-001
  1.522317E+002, -1.885154E+001,  0.000000E+000,  4.714889E+001,  1.398510E+000, -3.087957E+000,  3.202811E-001
  1.472759E+002, -1.039258E+001,  0.000000E+000,  5.197837E+001,  4.294025E-001, -4.088984E+000,  3.204510E-001
  2.043664E+002,  1.334592E+001,  0.000000E+000, -7.456220E+001, -7.992508E+000,  6.216413E+000,  3.203408E-001
  2.086960E+002,  1.036742E+001,  0.000000E+000, -7.259391E+001, -7.533892E+000,  8.921759E+000,  3.204168E-001
  2.123572E+002,  5.874916E+000,  0.000000E+000, -7.039367E+001, -7.145394E+000,  1.125270E+001,  3.207828E-001
  2.146750E+002,  1.737460E+000,  0.000000E+000, -6.823427E+001, -6.943403E+000,  1.230892E+001,  3.203205E-001
  2.162649E+002, -6.703253E-001,  0.000000E+000, -6.643818E+001, -6.940700E+000,  1.254375E+001,  3.201890E-001
  2.172130E+002, -2.153587E+000,  0.000000E+000, -6.485556E+001, -7.104798E+000,  1.223479E+001,  3.206525E-001
  2.167534E+002, -6.058310E+000,  0.000000E+000, -6.026571E+001, -6.467999E+000,  1.225866E+001,  3.203075E-001
  2.141105E+002, -1.339515E+001,  0.000000E+000, -4.838304E+001, -2.647769E+000,  1.304304E+001,  3.201470E-001
  2.101156E+002, -2.182995E+001,  0.000000E+000, -3.529195E+001,  1.093115E+000,  1.267371E+001,  3.206227E-001
  2.046866E+002, -3.184298E+001,  0.000000E+000, -2.240179E+001,  4.401684E+000,  1.120798E+001,  3.203038E-001
  1.981010E+002, -4.330851E+001,  0.000000E+000, -9.774496E+000,  7.414853E+000,  9.119869E+000,  3.205539E-001
  1.911020E+002, -5.513306E+001,  0.000000E+000,  3.188078E+000,  1.035050E+001,  6.793837E+000,  3.204319E-001
  1.849677E+002, -6.352524E+001,  0.000000E+000,  1.422961E+001,  1.247300E+001,  4.420751E+000,  3.207253E-001
  1.810933E+002, -5.689235E+001,  0.000000E+000,  2.017641E+001,  1.094270E+001,  3.555075E+000,  3.202556E-001
  1.741556E+002, -4.443167E+001,  0.000000E+000,  2.789697E+001,  8.866875E+000,  2.191464E+000,  3.201862E-001
  1.675708E+002, -3.284227E+001,  0.000000E+000,  3.495597E+001,  7.148830E+000,  8.823249E-001,  3.201411E-001
  1.616082E+002, -2.236924E+001,  0.000000E+000,  4.120207E+001,  5.687871E+000, -4.646173E-001,  3.205355E-001
  1.561008E+002, -1.272846E+001,  0.000000E+000,  4.689858E+001,  4.403008E+000, -1.752345E+000,  3.205770E-001
  1.509417E+002, -3.845779E+000,  0.000000E+000,  5.211673E+001,  3.266178E+000, -2.926908E+000,  3.200437E-001
  1.460860E+002,  4.250956E+000,  0.000000E+000,  5.685431E+001,  2.181767E+000, -3.887744E+000,  3.203376E-001
  2.037589E+002,  2.346483E+001,  0.000000E+000, -7.692357E+001, -8.086028E+000,  5.600346E+000,  3.207572E-001
  2.083114E+002,  2.083951E+001,  0.000000E+000, -7.500162E+001, -7.625004E+000,  8.360188E+000,  3.202276E-001
  2.130182E+002,  1.804088E+001,  0.000000E+000, -7.297604E+001, -7.098405E+000,  1.146106E+001,  3.203038E-001
  2.178825E+002,  1.526657E+001,  0.000000E+000, -7.063994E+001, -6.490359E+000,  1.468149E+001,  3.204171E-001
  2.217538E+002,  1.236245E+001,  0.000000E+000, -6.827368E+001, -5.968123E+000,  1.696837E+001,  3.200703E-001
  2.239114E+002,  1.001541E+001,  0.000000E+000, -6.623611E+001, -5.751244E+000,  1.765878E+001,  3.201785E-001
  2.253278E+002,  9.086385E+000,  0.000000E+000, -6.418704E+001, -5.534597E+000,  1.771788E+001,  3.208203E-001
  2.223668E+002,  1.359099E+000,  0.000000E+000, -5.450178E+001, -3.299270E+000,  1.680629E+001,  3.203221E-001
  2.168386E+002, -9.626543E+000,  0.000000E+000, -4.159011E+001, -2.232209E-001,  1.495582E+001,  3.201325E-001
  2.104454E+002, -2.158681E+001,  0.000000E+000, -2.863598E+001,  2.710946E+000,  1.274285E+001,  3.204330E-001
  2.035982E+002, -3.316730E+001,  0.000000E+000, -1.532226E+001,  5.669704E+000,  1.062302E+001,  3.207165E-001
  1.964878E+002, -4.057728E+001,  0.000000E+000, -9.999712E-001,  9.247662E+000,  8.744017E+000,  3.203558E-001
  1.881921E+002, -4.420399E+001,  0.000000E+000,  1.408195E+001,  1.289788E+001,  6.372098E+000,  3.205127E-001
  1.796368E+002, -3.933559E+001,  0.000000E+000,  2.577653E+001,  1.335823E+001,  4.042663E+000,  3.205170E-001
  1.723441E+002, -2.747923E+001,  0.000000E+000,  3.342534E+001,  1.125765E+001,  2.591173E+000,  3.205536E-001
  1.656353E+002, -1.650612E+001,  0.000000E+000,  4.032113E+001,  9.418072E+000,  1.157676E+000,  3.205320E-001
  1.596131E+002, -6.533900E+000,  0.000000E+000,  4.646512E+001,  7.805477E+000, -1.972585E-001,  3.205994E-001
  1.540566E+002,  2.673506E+000,  0.000000E+000,  5.202728E+001,  6.379930E+000, -1.497209E+000,  3.203935E-001
  1.489082E+002,  1.103019E+001,  0.000000E+000,  5.708398E+001,  5.126803E+000, -2.669106E+000,  3.200247E-001
  1.439539E+002,  1.870991E+001,  0.000000E+000,  6.172520E+001,  3.960651E+000, -3.566664E+000,  3.200946E-001
  2.009592E+002,  2.965490E+001,  0.000000E+000, -7.846150E+001, -8.517232E+000,  3.378582E+000,  3.203984E-001
  2.054566E+002,  2.675669E+001,  0.000000E+000, -7.657097E+001, -8.087647E+000,  6.026469E+000,  3.205834E-001
  2.102958E+002,  2.368364E+001,  0.000000E+000, -7.444799E+001, -7.605173E+000,  9.031739E+000,  3.205752E-001
  2.154144E+002,  2.064927E+001,  0.000000E+000, -7.209440E+001, -7.028402E+000,  1.240520E+001,  3.205440E-001
  2.205679E+002,  1.771773E+001,  0.000000E+000, -6.956845E+001, -6.376673E+000,  1.581649E+001,  3.205537E-001
  2.244337E+002,  1.585225E+001,  0.000000E+000, -6.711900E+001, -5.761113E+000,  1.798178E+001,  3.206876E-001
  2.272878E+002,  1.553627E+001,  0.000000E+000, -6.452601E+001, -5.349503E+000,  1.891232E+001,  3.204202E-001
  2.287332E+002,  1.488682E+001,  0.000000E+000, -6.112684E+001, -4.915920E+000,  1.896181E+001,  3.204061E-001
  2.233024E+002,  7.085530E+000,  0.000000E+000, -4.792101E+001, -1.255327E+000,  1.729960E+001,  3.202279E-001
  2.165536E+002,  1.263345E+000,  0.000000E+000, -3.312587E+001,  2.872517E+000,  1.527281E+001,  3.201986E-001
  2.092951E+002, -3.703247E+000,  0.000000E+000, -1.785167E+001,  7.069057E+000,  1.335228E+001,  3.204518E-001
  2.012055E+002, -7.770730E+000,  0.000000E+000, -2.383066E+000,  1.085344E+001,  1.109508E+001,  3.203502E-001
  1.913499E+002, -1.103991E+001,  0.000000E+000,  1.308432E+001,  1.312209E+001,  8.268641E+000,  3.202782E-001
  1.798193E+002, -1.314180E+001,  0.000000E+000,  2.798339E+001,  1.407452E+001,  5.299340E+000,  3.201780E-001
  1.702708E+002, -9.309748E+000,  0.000000E+000,  3.911659E+001,  1.376395E+001,  2.912252E+000,  3.204063E-001
  1.635028E+002,  8.603507E-001,  0.000000E+000,  4.588751E+001,  1.177031E+001,  1.424158E+000,  3.204038E-001
  1.573715E+002,  1.036223E+001,  0.000000E+000,  5.193050E+001,  9.934956E+000,  8.417985E-002,  3.202015E-001
  1.518871E+002,  1.914650E+001,  0.000000E+000,  5.728756E+001,  8.321797E+000, -1.212574E+000,  3.201402E-001
  1.467936E+002,  2.703981E+001,  0.000000E+000,  6.214568E+001,  6.932796E+000, -2.392517E+000,  3.204672E-001
  1.419131E+002,  3.391982E+001,  0.000000E+000,  6.650499E+001,  5.728770E+000, -3.279209E+000,  3.205725E-001
  1.990821E+002,  4.190926E+001,  0.000000E+000, -7.962357E+001, -9.605704E+000,  1.953183E+000,  3.203658E-001
  2.035494E+002,  4.041410E+001,  0.000000E+000, -7.781306E+001, -9.320541E+000,  4.633313E+000,  3.201599E-001
  2.083807E+002,  3.877156E+001,  0.000000E+000, -7.572450E+001, -9.175244E+000,  7.796159E+000,  3.206674E-001
  2.136029E+002,  3.707822E+001,  0.000000E+000, -7.337637E+001, -9.046474E+000,  1.136430E+001,  3.206978E-001
  2.189314E+002,  3.463198E+001,  0.000000E+000, -7.076013E+001, -8.627152E+000,  1.490306E+001,  3.200575E-001
  2.239453E+002,  3.316592E+001,  0.000000E+000, -6.731267E+001, -7.615199E+000,  1.770496E+001,  3.205303E-001
  2.276772E+002,  3.418269E+001,  0.000000E+000, -6.250423E+001, -4.481219E+000,  1.937400E+001,  3.207075E-001
  2.298953E+002,  3.827481E+001,  0.000000E+000, -5.767033E+001, -1.953360E+000,  2.012675E+001,  3.205767E-001
  2.289511E+002,  4.088118E+001,  0.000000E+000, -4.998636E+001,  6.213826E-001,  2.011931E+001,  3.201101E-001
  2.218999E+002,  3.648293E+001,  0.000000E+000, -3.483296E+001,  5.091919E+000,  1.805511E+001,  3.202092E-001
  2.138160E+002,  3.241311E+001,  0.000000E+000, -1.910107E+001,  8.854501E+000,  1.575742E+001,  3.200072E-001
  2.044476E+002,  2.858798E+001,  0.000000E+000, -3.477871E+000,  1.150475E+001,  1.298484E+001,  3.203027E-001
  1.928632E+002,  2.489787E+001,  0.000000E+000,  1.195673E+001,  1.245380E+001,  9.920690E+000,  3.200068E-001
  1.814679E+002,  2.154047E+001,  0.000000E+000,  2.692168E+001,  1.340512E+001,  6.988093E+000,  3.204267E-001
  1.703874E+002,  1.880337E+001,  0.000000E+000,  4.103421E+001,  1.427474E+001,  4.096292E+000,  3.200375E-001
  1.612267E+002,  2.083447E+001,  0.000000E+000,  5.160281E+001,  1.400527E+001,  1.824249E+000,  3.204084E-001
  1.551103E+002,  2.939983E+001,  0.000000E+000,  5.747953E+001,  1.203137E+001,  4.598971E-001,  3.204572E-001
  1.496898E+002,  3.714033E+001,  0.000000E+000,  6.256269E+001,  1.031614E+001, -8.109256E-001,  3.201364E-001
  1.447100E+002,  4.393566E+001,  0.000000E+000,  6.707214E+001,  8.890721E+000, -1.996763E+000,  3.203230E-001
  1.400286E+002,  4.990002E+001,  0.000000E+000,  7.113581E+001,  7.643304E+000, -2.964391E+000,  3.205608E-001
  1.985487E+002,  6.127642E+001,  0.000000E+000, -8.007424E+001, -1.311038E+001,  2.591761E+000,  3.203455E-001
  2.029083E+002,  6.090787E+001,  0.000000E+000, -7.836827E+001, -1.294425E+001,  5.255668E+000,  3.205848E-001
  2.074915E+002,  6.053331E+001,  0.000000E+000, -7.640694E+001, -1.266570E+001,  8.310470E+000,  3.202280E-001
  2.124874E+002,  6.071391E+001,  0.000000E+000, -7.379667E+001, -1.187007E+001,  1.170426E+001,  3.204216E-001
  2.177388E+002,  6.224293E+001,  0.000000E+000, -6.977610E+001, -1.014134E+001,  1.495537E+001,  3.202777E-001
  2.227798E+002,  6.442592E+001,  0.000000E+000, -6.492961E+001, -7.584596E+000,  1.790924E+001,  3.203046E-001
  2.265793E+002,  6.684100E+001,  0.000000E+000, -5.959425E+001, -4.021825E+000,  1.964855E+001,  3.203179E-001
  2.297211E+002,  6.950032E+001,  0.000000E+000, -5.382389E+001, -1.035168E-001,  2.090397E+001,  3.205391E-001
  2.307865E+002,  7.355657E+001,  0.000000E+000, -4.791101E+001,  3.032223E+000,  2.158997E+001,  3.206749E-001
  2.257945E+002,  7.291463E+001,  0.000000E+000, -3.568114E+001,  6.600805E+000,  2.045383E+001,  3.200532E-001
  2.170643E+002,  6.890974E+001,  0.000000E+000, -1.994582E+001,  9.727007E+000,  1.768380E+001,  3.202051E-001
  2.055771E+002,  6.462604E+001,  0.000000E+000, -4.091163E+000,  1.072321E+001,  1.453545E+001,  3.202867E-001
  1.940750E+002,  6.047388E+001,  0.000000E+000,  1.114287E+001,  1.162402E+001,  1.151785E+001,  3.204266E-001
  1.827668E+002,  5.646019E+001,  0.000000E+000,  2.589578E+001,  1.250032E+001,  8.617732E+000,  3.200700E-001
  1.718831E+002,  5.260847E+001,  0.000000E+000,  3.986941E+001,  1.334521E+001,  5.758169E+000,  3.205039E-001
  1.615400E+002,  4.903275E+001,  0.000000E+000,  5.285595E+001,  1.424010E+001,  2.992689E+000,  3.200829E-001
  1.528696E+002,  4.872353E+001,  0.000000E+000,  6.279737E+001,  1.417728E+001,  8.586637E-001,  3.204529E-001
  1.474375E+002,  5.493087E+001,  0.000000E+000,  6.767091E+001,  1.243563E+001, -3.915210E-001,  3.201290E-001
  1.427607E+002,  5.808314E+001,  0.000000E+000,  7.098567E+001,  1.041329E+001, -1.684128E+000,  3.200192E-001
  1.386277E+002,  5.900143E+001,  0.000000E+000,  7.334757E+001,  8.335637E+000, -2.927683E+000,  3.200494E-001
  1.980183E+002,  8.091862E+001,  0.000000E+000, -8.022302E+001, -1.646162E+001,  3.364402E+000,  3.201959E-001
  2.022676E+002,  8.220357E+001,  0.000000E+000, -7.829054E+001, -1.593776E+001,  6.008625E+000,  3.205060E-001
  2.066920E+002,  8.421417E+001,  0.000000E+000, -7.570609E+001, -1.470544E+001,  8.986263E+000,  3.205583E-001
  2.116613E+002,  8.747592E+001,  0.000000E+000, -7.198987E+001, -1.302586E+001,  1.215337E+001,  3.202924E-001
  2.166325E+002,  9.125129E+001,  0.000000E+000, -6.756274E+001, -1.076052E+001,  1.530566E+001,  3.204781E-001
  2.215361E+002,  9.542552E+001,  0.000000E+000, -6.250949E+001, -7.929583E+000,  1.831847E+001,  3.203694E-001
  2.252617E+002,  9.936934E+001,  0.000000E+000, -5.710358E+001, -4.529867E+000,  2.011897E+001,  3.204236E-001
  2.285635E+002,  1.033983E+002,  0.000000E+000, -5.125534E+001, -8.951912E-001,  2.160053E+001,  3.200584E-001
  2.299659E+002,  1.069907E+002,  0.000000E+000, -4.489220E+001,  3.145877E+000,  2.242088E+001,  3.200330E-001
  2.284195E+002,  1.092197E+002,  0.000000E+000, -3.589306E+001,  7.303478E+000,  2.249748E+001,  3.205256E-001
  2.178748E+002,  1.049548E+002,  0.000000E+000, -1.991573E+001,  8.830156E+000,  1.917183E+001,  3.202547E-001
  2.063647E+002,  9.990819E+001,  0.000000E+000, -4.446272E+000,  9.847564E+000,  1.603893E+001,  3.204881E-001
  1.950720E+002,  9.490014E+001,  0.000000E+000,  1.047080E+001,  1.078572E+001,  1.303769E+001,  3.201923E-001
  1.839626E+002,  8.981741E+001,  0.000000E+000,  2.488808E+001,  1.171191E+001,  1.016609E+001,  3.202900E-001
  1.732427E+002,  8.474755E+001,  0.000000E+000,  3.851087E+001,  1.258461E+001,  7.335699E+000,  3.202995E-001
  1.630696E+002,  7.838308E+001,  0.000000E+000,  5.095552E+001,  1.320624E+001,  4.551180E+000,  3.200915E-001
  1.536188E+002,  6.973793E+001,  0.000000E+000,  6.186049E+001,  1.350138E+001,  1.750586E+000,  3.203981E-001
  1.460760E+002,  6.391807E+001,  0.000000E+000,  6.928551E+001,  1.250385E+001, -4.134273E-001,  3.200691E-001
  1.415962E+002,  6.356883E+001,  0.000000E+000,  7.194750E+001,  1.026708E+001, -1.782358E+000,  3.204161E-001
  1.377398E+002,  6.347343E+001,  0.000000E+000,  7.402608E+001,  8.288072E+000, -3.033269E+000,  3.201521E-001
  1.972995E+002,  1.010464E+002,  0.000000E+000, -7.948017E+001, -1.833939E+001,  3.937377E+000,  3.203722E-001
  2.014216E+002,  1.040569E+002,  0.000000E+000, -7.708893E+001, -1.721354E+001,  6.620620E+000,  3.204964E-001
  2.060007E+002,  1.081640E+002,  0.000000E+000, -7.367487E+001, -1.571523E+001,  9.579314E+000,  3.201818E-001
  2.107362E+002,  1.130170E+002,  0.000000E+000, -6.958051E+001, -1.368463E+001,  1.268204E+001,  3.200710E-001
  2.155158E+002,  1.183029E+002,  0.000000E+000, -6.498896E+001, -1.127576E+001,  1.579215E+001,  3.201859E-001
  2.203134E+002,  1.239510E+002,  0.000000E+000, -5.993728E+001, -8.527622E+000,  1.879844E+001,  3.200005E-001
  2.240318E+002,  1.295499E+002,  0.000000E+000, -5.456127E+001, -5.350806E+000,  2.069338E+001,  3.205474E-001
  2.273259E+002,  1.351952E+002,  0.000000E+000, -4.880021E+001, -1.879475E+000,  2.223950E+001,  3.200378E-001
  2.286552E+002,  1.401118E+002,  0.000000E+000, -4.256438E+001,  2.033301E+000,  2.312893E+001,  3.205215E-001
  2.276647E+002,  1.432617E+002,  0.000000E+000, -3.428498E+001,  6.175272E+000,  2.342318E+001,  3.201638E-001
  2.182299E+002,  1.393390E+002,  0.000000E+000, -1.971185E+001,  7.993559E+000,  2.054479E+001,  3.200903E-001
  2.070116E+002,  1.334475E+002,  0.000000E+000, -4.790760E+000,  9.082959E+000,  1.744469E+001,  3.203939E-001
  1.958929E+002,  1.254690E+002,  0.000000E+000,  9.361259E+000,  9.852297E+000,  1.439604E+001,  3.200804E-001
  1.850347E+002,  1.145726E+002,  0.000000E+000,  2.247850E+001,  1.007691E+001,  1.127027E+001,  3.204540E-001
  1.746755E+002,  1.036242E+002,  0.000000E+000,  3.469153E+001,  1.021189E+001,  8.188106E+000,  3.205086E-001
  1.649545E+002,  9.317744E+001,  0.000000E+000,  4.607204E+001,  1.036662E+001,  5.288359E+000,  3.204268E-001
  1.558234E+002,  8.313877E+001,  0.000000E+000,  5.660299E+001,  1.065686E+001,  2.530329E+000,  3.202522E-001
  1.472122E+002,  7.380470E+001,  0.000000E+000,  6.632835E+001,  1.107900E+001, -1.252962E-001,  3.202811E-001
  1.408218E+002,  6.857597E+001,  0.000000E+000,  7.213745E+001,  9.942631E+000, -1.947003E+000,  3.204464E-001
  1.369226E+002,  6.759867E+001,  0.000000E+000,  7.439272E+001,  7.886397E+000, -3.236832E+000,  3.204036E-001
  1.964427E+002,  1.213081E+002,  0.000000E+000, -7.817285E+001, -1.918645E+001,  4.404709E+000,  3.201084E-001
  2.006578E+002,  1.258651E+002,  0.000000E+000, -7.512819E+001, -1.790979E+001,  7.077080E+000,  3.206024E-001
  2.051086E+002,  1.311736E+002,  0.000000E+000, -7.126919E+001, -1.606077E+001,  1.003333E+001,  3.201718E-001
  2.097792E+002,  1.369833E+002,  0.000000E+000, -6.701153E+001, -1.400974E+001,  1.314412E+001,  3.200944E-001
  2.143938E+002,  1.432165E+002,  0.000000E+000, -6.238433E+001, -1.166019E+001,  1.620748E+001,  3.200176E-001
  2.190804E+002,  1.498709E+002,  0.000000E+000, -5.729487E+001, -9.115366E+000,  1.921620E+001,  3.203412E-001
  2.228553E+002,  1.565287E+002,  0.000000E+000, -5.190526E+001, -6.105933E+000,  2.129071E+001,  3.201918E-001
  2.260764E+002,  1.633423E+002,  0.000000E+000, -4.620356E+001, -2.886084E+000,  2.286911E+001,  3.202749E-001
  2.272480E+002,  1.691736E+002,  0.000000E+000, -4.007599E+001,  9.392452E-001,  2.383819E+001,  3.206264E-001
  2.264985E+002,  1.713815E+002,  0.000000E+000, -3.285946E+001,  4.884835E+000,  2.415541E+001,  3.200316E-001
  2.181439E+002,  1.630850E+002,  0.000000E+000, -2.068508E+001,  6.308762E+000,  2.136659E+001,  3.201413E-001
  2.072484E+002,  1.512933E+002,  0.000000E+000, -7.254509E+000,  6.581998E+000,  1.794209E+001,  3.202180E-001
  1.966545E+002,  1.392546E+002,  0.000000E+000,  5.650589E+000,  6.870081E+000,  1.477327E+001,  3.201018E-001
  1.861957E+002,  1.273833E+002,  0.000000E+000,  1.822223E+001,  7.177080E+000,  1.173272E+001,  3.204726E-001
  1.761983E+002,  1.158040E+002,  0.000000E+000,  2.999185E+001,  7.541234E+000,  8.776800E+000,  3.200540E-001
  1.667943E+002,  1.049211E+002,  0.000000E+000,  4.100956E+001,  7.903056E+000,  5.953988E+000,  3.201332E-001
  1.579293E+002,  9.456814E+001,  0.000000E+000,  5.132064E+001,  8.158236E+000,  3.201715E+000,  3.205043E-001
  1.495584E+002,  8.483950E+001,  0.000000E+000,  6.092899E+001,  8.412055E+000,  5.703908E-001,  3.202385E-001
  1.417284E+002,  7.587863E+001,  0.000000E+000,  6.974082E+001,  8.739592E+000, -1.911222E+000,  3.202773E-001
  1.363724E+002,  7.149223E+001,  0.000000E+000,  7.430178E+001,  7.359387E+000, -3.503205E+000,  3.200976E-001
  1.956406E+002,  1.413232E+002,  0.000000E+000, -7.636459E+001, -1.975264E+001,  4.820054E+000,  3.205694E-001
  1.998276E+002,  1.469588E+002,  0.000000E+000, -7.278352E+001, -1.809073E+001,  7.471712E+000,  3.201923E-001
  2.041386E+002,  1.530553E+002,  0.000000E+000, -6.885632E+001, -1.626445E+001,  1.036898E+001,  3.202035E-001
  2.087059E+002,  1.596473E+002,  0.000000E+000, -6.455662E+001, -1.425612E+001,  1.347083E+001,  3.203351E-001
  2.132730E+002,  1.666131E+002,  0.000000E+000, -5.989662E+001, -1.201855E+001,  1.656824E+001,  3.203445E-001
  2.177667E+002,  1.739644E+002,  0.000000E+000, -5.478480E+001, -9.641376E+000,  1.954236E+001,  3.204768E-001
  2.215872E+002,  1.813191E+002,  0.000000E+000, -4.942558E+001, -6.805660E+000,  2.181053E+001,  3.202748E-001
  2.243551E+002,  1.848045E+002,  0.000000E+000, -4.459274E+001, -4.095601E+000,  2.299421E+001,  3.206474E-001
  2.257948E+002,  1.839276E+002,  0.000000E+000, -3.981966E+001, -1.269499E+000,  2.384155E+001,  3.201110E-001
  2.253608E+002,  1.811747E+002,  0.000000E+000, -3.390666E+001,  1.720204E+000,  2.398102E+001,  3.201963E-001
  2.178195E+002,  1.721347E+002,  0.000000E+000, -2.281780E+001,  3.124133E+000,  2.144227E+001,  3.205093E-001
  2.073936E+002,  1.605931E+002,  0.000000E+000, -1.011142E+001,  3.673063E+000,  1.814125E+001,  3.202880E-001
  1.973336E+002,  1.490679E+002,  0.000000E+000,  2.019478E+000,  4.282180E+000,  1.513416E+001,  3.201416E-001
  1.872793E+002,  1.372776E+002,  0.000000E+000,  1.404072E+001,  4.766909E+000,  1.221500E+001,  3.201319E-001
  1.776713E+002,  1.258703E+002,  0.000000E+000,  2.541627E+001,  5.089045E+000,  9.303775E+000,  3.205351E-001
  1.685453E+002,  1.148988E+002,  0.000000E+000,  3.614082E+001,  5.380329E+000,  6.460927E+000,  3.201328E-001
  1.599310E+002,  1.045628E+002,  0.000000E+000,  4.621494E+001,  5.653790E+000,  3.742582E+000,  3.205407E-001
  1.517848E+002,  9.477321E+001,  0.000000E+000,  5.566185E+001,  5.884276E+000,  1.162493E+000,  3.202273E-001
  1.440413E+002,  8.555839E+001,  0.000000E+000,  6.452409E+001,  6.097364E+000, -1.290847E+000,  3.204026E-001
  1.363142E+002,  7.767481E+001,  0.000000E+000,  7.237102E+001,  6.271705E+000, -3.012457E+000,  3.203360E-001
  1.948146E+002,  1.607431E+002,  0.000000E+000, -7.415925E+001, -1.988987E+001,  5.250505E+000,  3.204413E-001
  1.989475E+002,  1.670375E+002,  0.000000E+000, -7.050284E+001, -1.822824E+001,  7.831347E+000,  3.202857E-001
  2.031806E+002,  1.736598E+002,  0.000000E+000, -6.654268E+001, -1.644116E+001,  1.067976E+001,  3.204603E-001
  2.075736E+002,  1.807496E+002,  0.000000E+000, -6.224189E+001, -1.447472E+001,  1.372383E+001,  3.200676E-001
  2.119916E+002,  1.882545E+002,  0.000000E+000, -5.756043E+001, -1.238825E+001,  1.679086E+001,  3.203691E-001
  2.159928E+002,  1.931098E+002,  0.000000E+000, -5.309652E+001, -1.028515E+001,  1.925302E+001,  3.204328E-001
  2.195808E+002,  1.936401E+002,  0.000000E+000, -4.933178E+001, -8.401063E+000,  2.078685E+001,  3.203392E-001
  2.224253E+002,  1.930703E+002,  0.000000E+000, -4.542921E+001, -6.488526E+000,  2.193622E+001,  3.206185E-001
  2.239220E+002,  1.913593E+002,  0.000000E+000, -4.098468E+001, -3.877060E+000,  2.281656E+001,  3.205444E-001
  2.239602E+002,  1.881529E+002,  0.000000E+000, -3.531805E+001, -1.098251E+000,  2.338840E+001,  3.201797E-001
  2.173100E+002,  1.790068E+002,  0.000000E+000, -2.493196E+001,  4.618382E-001,  2.136294E+001,  3.202889E-001
  2.075354E+002,  1.672710E+002,  0.000000E+000, -1.279589E+001,  1.186871E+000,  1.832981E+001,  3.205113E-001
  1.979181E+002,  1.558810E+002,  0.000000E+000, -1.173342E+000,  1.718957E+000,  1.535224E+001,  3.201441E-001
  1.882366E+002,  1.447081E+002,  0.000000E+000,  1.030244E+001,  2.193430E+000,  1.237539E+001,  3.200024E-001
  1.789297E+002,  1.339527E+002,  0.000000E+000,  2.123022E+001,  2.613940E+000,  9.477044E+000,  3.205063E-001
  1.701058E+002,  1.234246E+002,  0.000000E+000,  3.162471E+001,  2.909028E+000,  6.729622E+000,  3.203815E-001
  1.617773E+002,  1.133903E+002,  0.000000E+000,  4.140525E+001,  3.125841E+000,  4.098194E+000,  3.201248E-001
  1.537334E+002,  1.037618E+002,  0.000000E+000,  5.067464E+001,  3.359177E+000,  1.592261E+000,  3.200277E-001
  1.454211E+002,  9.478633E+001,  0.000000E+000,  5.958536E+001,  3.677212E+000, -2.195570E-001,  3.203796E-001
  1.372038E+002,  8.650173E+001,  0.000000E+000,  6.798412E+001,  4.050757E+000, -1.649009E+000,  3.202310E-001
  1.939777E+002,  1.790810E+002,  0.000000E+000, -7.200890E+001, -1.997386E+001,  5.737647E+000,  3.200785E-001
  1.979915E+002,  1.858163E+002,  0.000000E+000, -6.833418E+001, -1.835215E+001,  8.261332E+000,  3.201039E-001
  2.021017E+002,  1.929458E+002,  0.000000E+000, -6.436847E+001, -1.659368E+001,  1.102947E+001,  3.203005E-001
  2.062011E+002,  1.992087E+002,  0.000000E+000, -6.033201E+001, -1.477097E+001,  1.374799E+001,  3.204177E-001
  2.097079E+002,  2.004063E+002,  0.000000E+000, -5.704281E+001, -1.323990E+001,  1.550458E+001,  3.203701E-001
  2.132168E+002,  2.005671E+002,  0.000000E+000, -5.378049E+001, -1.170013E+001,  1.704995E+001,  3.203677E-001
  2.168658E+002,  2.004358E+002,  0.000000E+000, -5.031447E+001, -1.011068E+001,  1.861738E+001,  3.203815E-001
  2.197587E+002,  1.993177E+002,  0.000000E+000, -4.656184E+001, -8.309417E+000,  2.009982E+001,  3.206671E-001
  2.218211E+002,  1.972382E+002,  0.000000E+000, -4.230958E+001, -5.895386E+000,  2.160554E+001,  3.202233E-001
  2.221335E+002,  1.935625E+002,  0.000000E+000, -3.692447E+001, -3.191852E+000,  2.233592E+001,  3.202192E-001
  2.164763E+002,  1.846214E+002,  0.000000E+000, -2.718391E+001, -1.834912E+000,  2.079517E+001,  3.204121E-001
  2.074990E+002,  1.729246E+002,  0.000000E+000, -1.536011E+001, -1.359195E+000,  1.821131E+001,  3.204464E-001
  1.982782E+002,  1.617534E+002,  0.000000E+000, -4.099986E+000, -8.340069E-001,  1.532963E+001,  3.203601E-001
  1.889971E+002,  1.508268E+002,  0.000000E+000,  6.965878E+000, -3.561117E-001,  1.242213E+001,  3.201773E-001
  1.800307E+002,  1.403370E+002,  0.000000E+000,  1.754834E+001,  4.078642E-002,  9.583761E+000,  3.203082E-001
  1.714711E+002,  1.303868E+002,  0.000000E+000,  2.755758E+001,  4.040715E-001,  6.829192E+000,  3.204847E-001
  1.631827E+002,  1.209716E+002,  0.000000E+000,  3.706013E+001,  7.535352E-001,  4.313303E+000,  3.202289E-001
  1.546365E+002,  1.118743E+002,  0.000000E+000,  4.627106E+001,  1.116295E+000,  2.494374E+000,  3.202012E-001
  1.460244E+002,  1.033718E+002,  0.000000E+000,  5.508746E+001,  1.525364E+000,  1.145612E+000,  3.203427E-001
  1.370932E+002,  9.541354E+001,  0.000000E+000,  6.354321E+001,  2.007352E+000,  3.285802E-001,  3.202991E-001
  1.931161E+002,  1.965085E+002,  0.000000E+000, -6.995966E+001, -2.008251E+001,  6.259831E+000,  3.204297E-001
  1.969525E+002,  2.033607E+002,  0.000000E+000, -6.632009E+001, -1.846598E+001,  8.673530E+000,  3.201026E-001
  2.002618E+002,  2.057976E+002,  0.000000E+000, -6.336686E+001, -1.698551E+001,  1.041986E+001,  3.200144E-001
  2.035117E+002,  2.062526E+002,  0.000000E+000, -6.060135E+001, -1.569745E+001,  1.180602E+001,  3.201968E-001
  2.069170E+002,  2.064459E+002,  0.000000E+000, -5.769286E+001, -1.439199E+001,  1.324837E+001,  3.204006E-001
  2.104496E+002,  2.062831E+002,  0.000000E+000, -5.467934E+001, -1.290703E+001,  1.478021E+001,  3.200089E-001
  2.139539E+002,  2.059075E+002,  0.000000E+000, -5.144560E+001, -1.146252E+001,  1.630851E+001,  3.203121E-001
  2.166509E+002,  2.042417E+002,  0.000000E+000, -4.787138E+001, -9.471391E+000,  1.789050E+001,  3.206135E-001
  2.188032E+002,  2.017728E+002,  0.000000E+000, -4.384591E+001, -7.231746E+000,  1.945111E+001,  3.205044E-001
  2.195246E+002,  1.979660E+002,  0.000000E+000, -3.857469E+001, -5.038776E+000,  2.046645E+001,  3.202248E-001
  2.151419E+002,  1.895298E+002,  0.000000E+000, -2.933897E+001, -3.939993E+000,  1.962486E+001,  3.201511E-001
  2.067565E+002,  1.781331E+002,  0.000000E+000, -1.784530E+001, -3.545782E+000,  1.733486E+001,  3.202188E-001
  1.982918E+002,  1.671028E+002,  0.000000E+000, -6.825680E+000, -3.200225E+000,  1.496887E+001,  3.202340E-001
  1.895582E+002,  1.564161E+002,  0.000000E+000,  3.857372E+000, -2.814034E+000,  1.227600E+001,  3.202456E-001
  1.808768E+002,  1.461581E+002,  0.000000E+000,  1.413641E+001, -2.426580E+000,  9.516325E+000,  3.200715E-001
  1.723612E+002,  1.364528E+002,  0.000000E+000,  2.394881E+001, -2.004958E+000,  7.001164E+000,  3.203595E-001
  1.636094E+002,  1.274007E+002,  0.000000E+000,  3.339672E+001, -1.525094E+000,  5.116092E+000,  3.201755E-001
  1.545897E+002,  1.190315E+002,  0.000000E+000,  4.246938E+001, -9.396836E-001,  3.777036E+000,  3.205193E-001
  1.453857E+002,  1.111544E+002,  0.000000E+000,  5.115967E+001, -3.290992E-001,  2.881732E+000,  3.201868E-001
  1.364201E+002,  1.034605E+002,  0.000000E+000,  5.946735E+001,  2.094889E-001,  2.167232E+000,  3.203246E-001
  1.918023E+002,  2.098376E+002,  0.000000E+000, -6.853454E+001, -2.022940E+001,  6.252412E+000,  3.200999E-001
  1.947223E+002,  2.108515E+002,  0.000000E+000, -6.618214E+001, -1.905804E+001,  7.489870E+000,  3.205918E-001
  1.977360E+002,  2.112725E+002,  0.000000E+000, -6.375600E+001, -1.785651E+001,  8.645864E+000,  3.203909E-001
  2.008677E+002,  2.113793E+002,  0.000000E+000, -6.116089E+001, -1.664053E+001,  9.844357E+000,  3.204508E-001
  2.041096E+002,  2.111132E+002,  0.000000E+000, -5.845495E+001, -1.528078E+001,  1.114202E+001,  3.200921E-001
  2.075127E+002,  2.107381E+002,  0.000000E+000, -5.560355E+001, -1.387182E+001,  1.254461E+001,  3.207006E-001
  2.109092E+002,  2.100273E+002,  0.000000E+000, -5.264009E+001, -1.233610E+001,  1.400216E+001,  3.206519E-001
  2.135310E+002,  2.080736E+002,  0.000000E+000, -4.925730E+001, -1.054558E+001,  1.547164E+001,  3.202646E-001
  2.156130E+002,  2.056248E+002,  0.000000E+000, -4.531636E+001, -8.461430E+000,  1.696927E+001,  3.203111E-001
  2.163128E+002,  2.019465E+002,  0.000000E+000, -4.015108E+001, -6.488127E+000,  1.800295E+001,  3.203504E-001
  2.126756E+002,  1.941592E+002,  0.000000E+000, -3.150705E+001, -5.442859E+000,  1.743349E+001,  3.203785E-001
  2.053166E+002,  1.829877E+002,  0.000000E+000, -2.028384E+001, -5.391393E+000,  1.570580E+001,  3.203468E-001
  1.976261E+002,  1.721409E+002,  0.000000E+000, -9.523454E+000, -5.292285E+000,  1.383871E+001,  3.204492E-001
  1.895773E+002,  1.616901E+002,  0.000000E+000,  8.842998E-001, -5.019376E+000,  1.159078E+001,  3.202123E-001
  1.811926E+002,  1.516404E+002,  0.000000E+000,  1.104748E+001, -4.647262E+000,  9.508828E+000,  3.205058E-001
  1.722599E+002,  1.422736E+002,  0.000000E+000,  2.080905E+001, -4.120594E+000,  7.664626E+000,  3.200357E-001
  1.628267E+002,  1.335993E+002,  0.000000E+000,  3.023629E+001, -3.502320E+000,  6.328145E+000,  3.200497E-001
  1.533781E+002,  1.254745E+002,  0.000000E+000,  3.922003E+001, -2.821285E+000,  5.350930E+000,  3.205018E-001
  1.442389E+002,  1.178227E+002,  0.000000E+000,  4.772571E+001, -2.155738E+000,  4.553344E+000,  3.202807E-001
  1.355464E+002,  1.106164E+002,  0.000000E+000,  5.574737E+001, -1.502971E+000,  3.827528E+000,  3.201393E-001
