 S11, S22, S33, S12, S23, S31, wp
  2.073770E+002, -1.769834E-001,  0.000000E+000, -3.070249E-002,  1.809263E-002,  7.584875E-002,  3.003219E-001
 -2.073770E+002,  1.769834E-001,  0.000000E+000,  3.070249E-002, -1.809263E-002, -7.584875E-002,  3.003219E-001
 -2.853056E+001, -1.334339E+002,  0.000000E+000, -8.151204E+001,  4.899539E+000, -6.622805E+000,  3.002046E-001
  2.853056E+001,  1.334339E+002,  0.000000E+000,  8.151204E+001, -4.899539E+000,  6.622805E+000,  3.002046E-001
 -3.027782E+001, -1.409497E+002,  0.000000E+000, -7.561760E+001,  3.674582E+000, -6.080245E+000,  3.000069E-001
  3.027782E+001,  1.409497E+002,  0.000000E+000,  7.561760E+001, -3.674582E+000,  6.080245E+000,  3.000069E-001
 -3.462674E+001, -1.504935E+002,  0.000000E+000, -6.706330E+001,  3.623984E+000, -6.016450E+000,  3.003268E-001
  3.462674E+001,  1.504935E+002,  0.000000E+000,  6.706330E+001, -3.623984E+000,  6.016450E+000,  3.003268E-001
 -4.051492E+001, -1.614614E+002,  0.000000E+000, -5.682526E+001,  4.198605E+000, -6.246677E+000,  3.001418E-001
  4.051492E+001,  1.614614E+002,  0.000000E+000,  5.682526E+001, -4.198605E+000,  6.246677E+000,  3.001418E-001
 -4.679424E+001, -1.732716E+002,  0.000000E+000, -4.573072E+001,  4.846123E+000, -6.498099E+000,  3.000319E-001
  4.679424E+001,  1.732716E+002,  0.000000E+000,  4.573072E+001, -4.846123E+000,  6.498099E+000,  3.000319E-001
 -5.357602E+001, -1.859914E+002,  0.000000E+000, -3.364702E+001,  5.517656E+000, -6.736177E+000,  3.002371E-001
  5.357602E+001,  1.859914E+002,  0.000000E+000,  3.364702E+001, -5.517656E+000,  6.736177E+000,  3.002371E-001
 -6.085406E+001, -1.995092E+002,  0.000000E+000, -2.057941E+001,  6.187502E+000, -6.966326E+000,  3.000039E-001
  6.085406E+001,  1.995092E+002,  0.000000E+000,  2.057941E+001, -6.187502E+000,  6.966326E+000,  3.000039E-001
 -6.854148E+001, -2.140037E+002,  0.000000E+000, -6.410808E+000,  6.942981E+000, -7.248982E+000,  3.003390E-001
  6.854148E+001,  2.140037E+002,  0.000000E+000,  6.410808E+000, -6.942981E+000,  7.248982E+000,  3.003390E-001
 -7.678288E+001, -2.293059E+002,  0.000000E+000,  8.807558E+000,  7.733374E+000, -7.588660E+000,  3.000443E-001
  7.678288E+001,  2.293059E+002,  0.000000E+000, -8.807558E+000, -7.733374E+000,  7.588660E+000,  3.000443E-001
 -8.552889E+001, -2.447682E+002,  0.000000E+000,  2.487987E+001,  8.536753E+000, -8.002569E+000,  3.000074E-001
  8.552889E+001,  2.447682E+002,  0.000000E+000, -2.487987E+001, -8.536753E+000,  8.002569E+000,  3.000074E-001
 -9.604698E+001, -2.524160E+002,  0.000000E+000,  3.684014E+001,  8.737536E+000, -9.534185E+000,  3.003435E-001
  9.604698E+001,  2.524160E+002,  0.000000E+000, -3.684014E+001, -8.737536E+000,  9.534185E+000,  3.003435E-001
 -1.070554E+002, -2.521668E+002,  0.000000E+000,  4.308808E+001,  7.878106E+000, -1.152382E+001,  3.002676E-001
  1.070554E+002,  2.521668E+002,  0.000000E+000, -4.308808E+001, -7.878106E+000,  1.152382E+001,  3.002676E-001
 -1.167260E+002, -2.512422E+002,  0.000000E+000,  4.876497E+001,  7.357640E+000, -1.295908E+001,  3.003192E-001
  1.167260E+002,  2.512422E+002,  0.000000E+000, -4.876497E+001, -7.357640E+000,  1.295908E+001,  3.003192E-001
 -1.239538E+002, -2.490903E+002,  0.000000E+000,  5.375693E+001,  7.794606E+000, -1.317085E+001,  3.001309E-001
  1.239538E+002,  2.490903E+002,  0.000000E+000, -5.375693E+001, -7.794606E+000,  1.317085E+001,  3.001309E-001
 -1.299977E+002, -2.467929E+002,  0.000000E+000,  5.802168E+001,  8.526248E+000, -1.303679E+001,  3.002965E-001
  1.299977E+002,  2.467929E+002,  0.000000E+000, -5.802168E+001, -8.526248E+000,  1.303679E+001,  3.002965E-001
 -1.348893E+002, -2.444690E+002,  0.000000E+000,  6.165417E+001,  9.569888E+000, -1.249229E+001,  3.005780E-001
  1.348893E+002,  2.444690E+002,  0.000000E+000, -6.165417E+001, -9.569888E+000,  1.249229E+001,  3.005780E-001
 -1.390921E+002, -2.422108E+002,  0.000000E+000,  6.489877E+001,  1.062285E+001, -1.182062E+001,  3.001871E-001
  1.390921E+002,  2.422108E+002,  0.000000E+000, -6.489877E+001, -1.062285E+001,  1.182062E+001,  3.001871E-001
 -1.426942E+002, -2.396887E+002,  0.000000E+000,  6.779147E+001,  1.144413E+001, -1.118754E+001,  3.000352E-001
  1.426942E+002,  2.396887E+002,  0.000000E+000, -6.779147E+001, -1.144413E+001,  1.118754E+001,  3.000352E-001
 -1.451785E+002, -2.363008E+002,  0.000000E+000,  7.033629E+001,  1.198413E+001, -1.058423E+001,  3.004967E-001
  1.451785E+002,  2.363008E+002,  0.000000E+000, -7.033629E+001, -1.198413E+001,  1.058423E+001,  3.004967E-001
 -1.468280E+002, -2.323412E+002,  0.000000E+000,  7.256533E+001,  1.247691E+001, -9.931736E+000,  3.001859E-001
  1.468280E+002,  2.323412E+002,  0.000000E+000, -7.256533E+001, -1.247691E+001,  9.931736E+000,  3.001859E-001
 -9.327191E+000, -1.377691E+002,  0.000000E+000, -8.231872E+001,  6.477004E+000, -7.081653E+000,  3.003541E-001
  9.327191E+000,  1.377691E+002,  0.000000E+000,  8.231872E+001, -6.477004E+000,  7.081653E+000,  3.003541E-001
 -8.786672E+000, -1.447737E+002,  0.000000E+000, -7.743970E+001,  4.830354E+000, -6.419641E+000,  3.002419E-001
  8.786672E+000,  1.447737E+002,  0.000000E+000,  7.743970E+001, -4.830354E+000,  6.419641E+000,  3.002419E-001
 -1.009294E+001, -1.532935E+002,  0.000000E+000, -7.042868E+001,  3.713018E+000, -5.910439E+000,  3.000010E-001
  1.009294E+001,  1.532935E+002,  0.000000E+000,  7.042868E+001, -3.713018E+000,  5.910439E+000,  3.000010E-001
 -1.458282E+001, -1.644278E+002,  0.000000E+000, -6.039577E+001,  4.042277E+000, -6.072011E+000,  3.002533E-001
  1.458282E+001,  1.644278E+002,  0.000000E+000,  6.039577E+001, -4.042277E+000,  6.072011E+000,  3.002533E-001
 -2.003874E+001, -1.767214E+002,  0.000000E+000, -4.903183E+001,  4.656045E+000, -6.375874E+000,  3.001220E-001
  2.003874E+001,  1.767214E+002,  0.000000E+000,  4.903183E+001, -4.656045E+000,  6.375874E+000,  3.001220E-001
 -2.574823E+001, -1.899407E+002,  0.000000E+000, -3.665904E+001,  5.420301E+000, -6.717065E+000,  3.001898E-001
  2.574823E+001,  1.899407E+002,  0.000000E+000,  3.665904E+001, -5.420301E+000,  6.717065E+000,  3.001898E-001
 -3.196753E+001, -2.040439E+002,  0.000000E+000, -2.325447E+001,  6.184289E+000, -7.032265E+000,  3.000425E-001
  3.196753E+001,  2.040439E+002,  0.000000E+000,  2.325447E+001, -6.184289E+000,  7.032265E+000,  3.000425E-001
 -3.865116E+001, -2.191722E+002,  0.000000E+000, -8.654401E+000,  6.918247E+000, -7.353994E+000,  3.003515E-001
  3.865116E+001,  2.191722E+002,  0.000000E+000,  8.654401E+000, -6.918247E+000,  7.353994E+000,  3.003515E-001
 -4.598229E+001, -2.351050E+002,  0.000000E+000,  6.987472E+000,  7.699332E+000, -7.759170E+000,  3.003357E-001
  4.598229E+001,  2.351050E+002,  0.000000E+000, -6.987472E+000, -7.699332E+000,  7.759170E+000,  3.003357E-001
 -5.592968E+001, -2.482743E+002,  0.000000E+000,  2.175986E+001,  8.912068E+000, -9.375244E+000,  3.003573E-001
  5.592968E+001,  2.482743E+002,  0.000000E+000, -2.175986E+001, -8.912068E+000,  9.375244E+000,  3.003573E-001
 -6.811601E+001, -2.527080E+002,  0.000000E+000,  3.086563E+001,  9.121631E+000, -1.136562E+001,  3.000772E-001
  6.811601E+001,  2.527080E+002,  0.000000E+000, -3.086563E+001, -9.121631E+000,  1.136562E+001,  3.000772E-001
 -7.934160E+001, -2.523301E+002,  0.000000E+000,  3.705360E+001,  7.855242E+000, -1.267789E+001,  3.002311E-001
  7.934160E+001,  2.523301E+002,  0.000000E+000, -3.705360E+001, -7.855242E+000,  1.267789E+001,  3.002311E-001
 -9.009698E+001, -2.514369E+002,  0.000000E+000,  4.307697E+001,  6.812305E+000, -1.393425E+001,  3.005472E-001
  9.009698E+001,  2.514369E+002,  0.000000E+000, -4.307697E+001, -6.812305E+000,  1.393425E+001,  3.005472E-001
 -1.001055E+002, -2.499596E+002,  0.000000E+000,  4.908775E+001,  5.985125E+000, -1.516130E+001,  3.003418E-001
  1.001055E+002,  2.499596E+002,  0.000000E+000, -4.908775E+001, -5.985125E+000,  1.516130E+001,  3.003418E-001
 -1.081473E+002, -2.478700E+002,  0.000000E+000,  5.403360E+001,  6.078856E+000, -1.555293E+001,  3.003202E-001
  1.081473E+002,  2.478700E+002,  0.000000E+000, -5.403360E+001, -6.078856E+000,  1.555293E+001,  3.003202E-001
 -1.146611E+002, -2.455493E+002,  0.000000E+000,  5.828408E+001,  6.697349E+000, -1.536029E+001,  3.002352E-001
  1.146611E+002,  2.455493E+002,  0.000000E+000, -5.828408E+001, -6.697349E+000,  1.536029E+001,  3.002352E-001
 -1.201010E+002, -2.432392E+002,  0.000000E+000,  6.183840E+001,  7.566445E+000, -1.483323E+001,  3.004740E-001
  1.201010E+002,  2.432392E+002,  0.000000E+000, -6.183840E+001, -7.566445E+000,  1.483323E+001,  3.004740E-001
 -1.244061E+002, -2.402166E+002,  0.000000E+000,  6.492270E+001,  8.378840E+000, -1.414453E+001,  3.000222E-001
  1.244061E+002,  2.402166E+002,  0.000000E+000, -6.492270E+001, -8.378840E+000,  1.414453E+001,  3.000222E-001
 -1.276011E+002, -2.362670E+002,  0.000000E+000,  6.776816E+001,  9.083490E+000, -1.340613E+001,  3.005053E-001
  1.276011E+002,  2.362670E+002,  0.000000E+000, -6.776816E+001, -9.083490E+000,  1.340613E+001,  3.005053E-001
 -1.290324E+002, -2.305384E+002,  0.000000E+000,  7.017674E+001,  9.810360E+000, -1.255000E+001,  3.001309E-001
  1.290324E+002,  2.305384E+002,  0.000000E+000, -7.017674E+001, -9.810360E+000,  1.255000E+001,  3.001309E-001
 -1.474741E+001, -1.312774E+002,  0.000000E+000, -8.562718E+001,  7.974781E+000, -7.751868E+000,  3.000751E-001
  1.474741E+001,  1.312774E+002,  0.000000E+000,  8.562718E+001, -7.974781E+000,  7.751868E+000,  3.000751E-001
 -1.270311E+002, -2.157933E+002,  0.000000E+000,  7.386570E+001,  1.091636E+001, -1.109868E+001,  3.003351E-001
  1.270311E+002,  2.157933E+002,  0.000000E+000, -7.386570E+001, -1.091636E+001,  1.109868E+001,  3.003351E-001
 -2.100725E+001, -1.242239E+002,  0.000000E+000, -8.865427E+001,  9.410358E+000, -8.553968E+000,  3.002860E-001
  2.100725E+001,  1.242239E+002,  0.000000E+000,  8.865427E+001, -9.410358E+000,  8.553968E+000,  3.002860E-001
 -1.221411E+002, -1.967862E+002,  0.000000E+000,  7.787656E+001,  1.204794E+001, -9.420254E+000,  3.000255E-001
  1.221411E+002,  1.967862E+002,  0.000000E+000, -7.787656E+001, -1.204794E+001,  9.420254E+000,  3.000255E-001
 -2.794373E+001, -1.164382E+002,  0.000000E+000, -9.173555E+001,  1.065208E+001, -9.464242E+000,  3.003378E-001
  2.794373E+001,  1.164382E+002,  0.000000E+000,  9.173555E+001, -1.065208E+001,  9.464242E+000,  3.003378E-001
 -1.164470E+002, -1.765924E+002,  0.000000E+000,  8.189235E+001,  1.332173E+001, -7.581169E+000,  3.002119E-001
  1.164470E+002,  1.765924E+002,  0.000000E+000, -8.189235E+001, -1.332173E+001,  7.581169E+000,  3.002119E-001
  9.708493E+000, -1.428518E+002,  0.000000E+000, -8.242508E+001,  8.135755E+000, -7.694828E+000,  3.004034E-001
 -9.708493E+000,  1.428518E+002,  0.000000E+000,  8.242508E+001, -8.135755E+000,  7.694828E+000,  3.004034E-001
  1.259491E+001, -1.492818E+002,  0.000000E+000, -7.843221E+001,  6.316373E+000, -7.001257E+000,  3.000717E-001
 -1.259491E+001,  1.492818E+002,  0.000000E+000,  7.843221E+001, -6.316373E+000,  7.001257E+000,  3.000717E-001
  1.393283E+001, -1.573210E+002,  0.000000E+000, -7.246951E+001,  4.749490E+000, -6.382761E+000,  3.003993E-001
 -1.393283E+001,  1.573210E+002,  0.000000E+000,  7.246951E+001, -4.749490E+000,  6.382761E+000,  3.003993E-001
  1.280602E+001, -1.674993E+002,  0.000000E+000, -6.397127E+001,  3.904236E+000, -6.060952E+000,  3.001450E-001
 -1.280602E+001,  1.674993E+002,  0.000000E+000,  6.397127E+001, -3.904236E+000,  6.060952E+000,  3.001450E-001
  8.618467E+000, -1.802279E+002,  0.000000E+000, -5.244064E+001,  4.533750E+000, -6.385586E+000,  3.002112E-001
 -8.618467E+000,  1.802279E+002,  0.000000E+000,  5.244064E+001, -4.533750E+000,  6.385586E+000,  3.002112E-001
  3.843882E+000, -1.940266E+002,  0.000000E+000, -3.976694E+001,  5.268410E+000, -6.751458E+000,  3.000554E-001
 -3.843882E+000,  1.940266E+002,  0.000000E+000,  3.976694E+001, -5.268410E+000,  6.751458E+000,  3.000554E-001
 -1.366672E+000, -2.086700E+002,  0.000000E+000, -2.608261E+001,  6.065653E+000, -7.184027E+000,  3.001445E-001
  1.366672E+000,  2.086700E+002,  0.000000E+000,  2.608261E+001, -6.065653E+000,  7.184027E+000,  3.001445E-001
 -9.557871E+000, -2.230608E+002,  0.000000E+000, -1.174590E+001,  7.390519E+000, -8.561303E+000,  3.002625E-001
  9.557871E+000,  2.230608E+002,  0.000000E+000,  1.174590E+001, -7.390519E+000,  8.561303E+000,  3.002625E-001
 -1.983943E+001, -2.374306E+002,  0.000000E+000,  3.159121E+000,  9.090527E+000, -1.052478E+001,  3.003943E-001
  1.983943E+001,  2.374306E+002,  0.000000E+000, -3.159121E+000, -9.090527E+000,  1.052478E+001,  3.003943E-001
 -3.177869E+001, -2.478072E+002,  0.000000E+000,  1.632734E+001,  1.055453E+001, -1.282952E+001,  3.004044E-001
  3.177869E+001,  2.478072E+002,  0.000000E+000, -1.632734E+001, -1.055453E+001,  1.282952E+001,  3.004044E-001
 -4.385181E+001, -2.526742E+002,  0.000000E+000,  2.556209E+001,  1.084511E+001, -1.432310E+001,  3.002107E-001
  4.385181E+001,  2.526742E+002,  0.000000E+000, -2.556209E+001, -1.084511E+001,  1.432310E+001,  3.002107E-001
 -5.468363E+001, -2.526582E+002,  0.000000E+000,  3.167804E+001,  9.331848E+000, -1.493216E+001,  3.003751E-001
  5.468363E+001,  2.526582E+002,  0.000000E+000, -3.167804E+001, -9.331848E+000,  1.493216E+001,  3.003751E-001
 -6.500430E+001, -2.513774E+002,  0.000000E+000,  3.758913E+001,  7.652531E+000, -1.551027E+001,  3.002482E-001
  6.500430E+001,  2.513774E+002,  0.000000E+000, -3.758913E+001, -7.652531E+000,  1.551027E+001,  3.002482E-001
 -7.499558E+001, -2.497971E+002,  0.000000E+000,  4.355218E+001,  6.244438E+000, -1.622335E+001,  3.005575E-001
  7.499558E+001,  2.497971E+002,  0.000000E+000, -4.355218E+001, -6.244438E+000,  1.622335E+001,  3.005575E-001
 -8.440585E+001, -2.481258E+002,  0.000000E+000,  4.918642E+001,  4.965527E+000, -1.692782E+001,  3.005133E-001
  8.440585E+001,  2.481258E+002,  0.000000E+000, -4.918642E+001, -4.965527E+000,  1.692782E+001,  3.005133E-001
 -9.294593E+001, -2.462255E+002,  0.000000E+000,  5.417118E+001,  4.269454E+000, -1.748569E+001,  3.004938E-001
  9.294593E+001,  2.462255E+002,  0.000000E+000, -5.417118E+001, -4.269454E+000,  1.748569E+001,  3.004938E-001
 -1.000149E+002, -2.438323E+002,  0.000000E+000,  5.824382E+001,  4.505371E+000, -1.737387E+001,  3.002536E-001
  1.000149E+002,  2.438323E+002,  0.000000E+000, -5.824382E+001, -4.505371E+000,  1.737387E+001,  3.002536E-001
 -1.052719E+002, -2.401914E+002,  0.000000E+000,  6.180967E+001,  5.120234E+000, -1.684830E+001,  3.001157E-001
  1.052719E+002,  2.401914E+002,  0.000000E+000, -6.180967E+001, -5.120234E+000,  1.684830E+001,  3.001157E-001
 -1.091359E+002, -2.356681E+002,  0.000000E+000,  6.477911E+001,  6.039099E+000, -1.604530E+001,  3.001723E-001
  1.091359E+002,  2.356681E+002,  0.000000E+000, -6.477911E+001, -6.039099E+000,  1.604530E+001,  3.001723E-001
 -1.080654E+002, -2.243971E+002,  0.000000E+000,  6.804494E+001,  7.060380E+000, -1.497681E+001,  3.001587E-001
  1.080654E+002,  2.243971E+002,  0.000000E+000, -6.804494E+001, -7.060380E+000,  1.497681E+001,  3.001587E-001
  4.711099E+000, -1.367947E+002,  0.000000E+000, -8.544142E+001,  9.696650E+000, -8.331182E+000,  3.002830E-001
 -4.711099E+000,  1.367947E+002,  0.000000E+000,  8.544142E+001, -9.696650E+000,  8.331182E+000,  3.002830E-001
 -1.033997E+002, -2.065140E+002,  0.000000E+000,  7.207256E+001,  8.032422E+000, -1.366522E+001,  3.000867E-001
  1.033997E+002,  2.065140E+002,  0.000000E+000, -7.207256E+001, -8.032422E+000,  1.366522E+001,  3.000867E-001
 -7.317133E-001, -1.298563E+002,  0.000000E+000, -8.850701E+001,  1.119203E+001, -9.104187E+000,  3.001676E-001
  7.317133E-001,  1.298563E+002,  0.000000E+000,  8.850701E+001, -1.119203E+001,  9.104187E+000,  3.001676E-001
 -9.819776E+001, -1.872608E+002,  0.000000E+000,  7.628653E+001,  9.055800E+000, -1.219657E+001,  3.002424E-001
  9.819776E+001,  1.872608E+002,  0.000000E+000, -7.628653E+001, -9.055800E+000,  1.219657E+001,  3.002424E-001
 -6.818292E+000, -1.222521E+002,  0.000000E+000, -9.156831E+001,  1.251358E+001, -1.003891E+001,  3.001486E-001
  6.818292E+000,  1.222521E+002,  0.000000E+000,  9.156831E+001, -1.251358E+001,  1.003891E+001,  3.001486E-001
 -9.208418E+001, -1.666474E+002,  0.000000E+000,  8.047536E+001,  1.022229E+001, -1.050063E+001,  3.001423E-001
  9.208418E+001,  1.666474E+002,  0.000000E+000, -8.047536E+001, -1.022229E+001,  1.050063E+001,  3.001423E-001
 -1.368326E+001, -1.139941E+002,  0.000000E+000, -9.461546E+001,  1.366411E+001, -1.113430E+001,  3.004140E-001
  1.368326E+001,  1.139941E+002,  0.000000E+000,  9.461546E+001, -1.366411E+001,  1.113430E+001,  3.004140E-001
 -8.502662E+001, -1.444093E+002,  0.000000E+000,  8.464009E+001,  1.142520E+001, -8.574761E+000,  3.000655E-001
  8.502662E+001,  1.444093E+002,  0.000000E+000, -8.464009E+001, -1.142520E+001,  8.574761E+000,  3.000655E-001
 -2.176462E+001, -1.056792E+002,  0.000000E+000, -9.693760E+001,  1.354101E+001, -1.252872E+001,  3.004300E-001
  2.176462E+001,  1.056792E+002,  0.000000E+000,  9.693760E+001, -1.354101E+001,  1.252872E+001,  3.004300E-001
 -7.712065E+001, -1.206635E+002,  0.000000E+000,  8.880775E+001,  1.256873E+001, -6.382781E+000,  3.002844E-001
  7.712065E+001,  1.206635E+002,  0.000000E+000, -8.880775E+001, -1.256873E+001,  6.382781E+000,  3.002844E-001
 -3.009805E+001, -9.637488E+001,  0.000000E+000, -9.869910E+001,  1.206534E+001, -1.416749E+001,  3.003881E-001
  3.009805E+001,  9.637488E+001,  0.000000E+000,  9.869910E+001, -1.206534E+001,  1.416749E+001,  3.003881E-001
 -6.778970E+001, -9.510776E+001,  0.000000E+000,  9.268920E+001,  1.343269E+001, -3.838238E+000,  3.004158E-001
  6.778970E+001,  9.510776E+001,  0.000000E+000, -9.268920E+001, -1.343269E+001,  3.838238E+000,  3.004158E-001
 -2.725942E+001, -7.356634E+001,  0.000000E+000, -9.965042E+001,  7.924729E+000, -1.381533E+001,  3.001249E-001
  2.725942E+001,  7.356634E+001,  0.000000E+000,  9.965042E+001, -7.924729E+000,  1.381533E+001,  3.001249E-001
 -5.666595E+001, -6.846925E+001,  0.000000E+000,  9.571402E+001,  1.264778E+001, -6.318256E-001,  3.003360E-001
  5.666595E+001,  6.846925E+001,  0.000000E+000, -9.571402E+001, -1.264778E+001,  6.318256E-001,  3.003360E-001
  2.855703E+001, -1.481964E+002,  0.000000E+000, -8.196657E+001,  9.725389E+000, -8.328635E+000,  3.003434E-001
 -2.855703E+001,  1.481964E+002,  0.000000E+000,  8.196657E+001, -9.725389E+000,  8.328635E+000,  3.003434E-001
  3.345590E+001, -1.542685E+002,  0.000000E+000, -7.858213E+001,  8.024942E+000, -7.758937E+000,  3.002163E-001
 -3.345590E+001,  1.542685E+002,  0.000000E+000,  7.858213E+001, -8.024942E+000,  7.758937E+000,  3.002163E-001
  3.742826E+001, -1.619302E+002,  0.000000E+000, -7.349890E+001,  6.158495E+000, -7.127999E+000,  3.003868E-001
 -3.742826E+001,  1.619302E+002,  0.000000E+000,  7.349890E+001, -6.158495E+000,  7.127999E+000,  3.003868E-001
  3.926379E+001, -1.712138E+002,  0.000000E+000, -6.618934E+001,  4.674494E+000, -6.598493E+000,  3.003807E-001
 -3.926379E+001,  1.712138E+002,  0.000000E+000,  6.618934E+001, -4.674494E+000,  6.598493E+000,  3.003807E-001
  3.750039E+001, -1.832220E+002,  0.000000E+000, -5.580441E+001,  4.373993E+000, -6.593328E+000,  3.001489E-001
 -3.750039E+001,  1.832220E+002,  0.000000E+000,  5.580441E+001, -4.373993E+000,  6.593328E+000,  3.001489E-001
  3.075833E+001, -1.962257E+002,  0.000000E+000, -4.335432E+001,  5.726679E+000, -8.018467E+000,  3.001389E-001
 -3.075833E+001,  1.962257E+002,  0.000000E+000,  4.335432E+001, -5.726679E+000,  8.018467E+000,  3.001389E-001
  2.192036E+001, -2.095681E+002,  0.000000E+000, -3.025542E+001,  7.548469E+000, -1.003444E+001,  3.000347E-001
 -2.192036E+001,  2.095681E+002,  0.000000E+000,  3.025542E+001, -7.548469E+000,  1.003444E+001,  3.000347E-001
  1.229324E+001, -2.233905E+002,  0.000000E+000, -1.640776E+001,  9.455076E+000, -1.227602E+001,  3.001962E-001
 -1.229324E+001,  2.233905E+002,  0.000000E+000,  1.640776E+001, -9.455076E+000,  1.227602E+001,  3.001962E-001
  1.545532E+000, -2.370200E+002,  0.000000E+000, -2.074404E+000,  1.138893E+001, -1.463789E+001,  3.002021E-001
 -1.545532E+000,  2.370200E+002,  0.000000E+000,  2.074404E+000, -1.138893E+001,  1.463789E+001,  3.002021E-001
 -1.120441E+001, -2.463282E+002,  0.000000E+000,  1.044061E+001,  1.282469E+001, -1.592516E+001,  3.002595E-001
  1.120441E+001,  2.463282E+002,  0.000000E+000, -1.044061E+001, -1.282469E+001,  1.592516E+001,  3.002595E-001
 -2.377190E+001, -2.511454E+002,  0.000000E+000,  2.028514E+001,  1.293815E+001, -1.583261E+001,  3.004394E-001
  2.377190E+001,  2.511454E+002,  0.000000E+000, -2.028514E+001, -1.293815E+001,  1.583261E+001,  3.004394E-001
 -3.368360E+001, -2.520715E+002,  0.000000E+000,  2.684053E+001,  1.135373E+001, -1.615179E+001,  3.002619E-001
  3.368360E+001,  2.520715E+002,  0.000000E+000, -2.684053E+001, -1.135373E+001,  1.615179E+001,  3.002619E-001
 -4.237778E+001, -2.510691E+002,  0.000000E+000,  3.262518E+001,  9.271295E+000, -1.717824E+001,  3.004737E-001
  4.237778E+001,  2.510691E+002,  0.000000E+000, -3.262518E+001, -9.271295E+000,  1.717824E+001,  3.004737E-001
 -5.128780E+001, -2.495114E+002,  0.000000E+000,  3.831537E+001,  7.296918E+000, -1.762072E+001,  3.004164E-001
  5.128780E+001,  2.495114E+002,  0.000000E+000, -3.831537E+001, -7.296918E+000,  1.762072E+001,  3.004164E-001
 -6.031507E+001, -2.476690E+002,  0.000000E+000,  4.387223E+001,  5.353082E+000, -1.788698E+001,  3.005524E-001
  6.031507E+001,  2.476690E+002,  0.000000E+000, -4.387223E+001, -5.353082E+000,  1.788698E+001,  3.005524E-001
 -6.935834E+001, -2.458558E+002,  0.000000E+000,  4.897688E+001,  3.653406E+000, -1.832025E+001,  3.000693E-001
  6.935834E+001,  2.458558E+002,  0.000000E+000, -4.897688E+001, -3.653406E+000,  1.832025E+001,  3.000693E-001
 -7.808588E+001, -2.434106E+002,  0.000000E+000,  5.390623E+001,  2.412609E+000, -1.898694E+001,  3.001712E-001
  7.808588E+001,  2.434106E+002,  0.000000E+000, -5.390623E+001, -2.412609E+000,  1.898694E+001,  3.001712E-001
 -8.496396E+001, -2.395272E+002,  0.000000E+000,  5.813183E+001,  2.272141E+000, -1.901752E+001,  3.002377E-001
  8.496396E+001,  2.395272E+002,  0.000000E+000, -5.813183E+001, -2.272141E+000,  1.901752E+001,  3.002377E-001
 -8.852770E+001, -2.320958E+002,  0.000000E+000,  6.178350E+001,  3.063608E+000, -1.818674E+001,  3.001080E-001
  8.852770E+001,  2.320958E+002,  0.000000E+000, -6.178350E+001, -3.063608E+000,  1.818674E+001,  3.001080E-001
 -8.535990E+001, -2.152977E+002,  0.000000E+000,  6.604946E+001,  4.071151E+000, -1.702493E+001,  3.002147E-001
  8.535990E+001,  2.152977E+002,  0.000000E+000, -6.604946E+001, -4.071151E+000,  1.702493E+001,  3.002147E-001
  2.450292E+001, -1.421983E+002,  0.000000E+000, -8.501421E+001,  1.137352E+001, -8.987447E+000,  3.000741E-001
 -2.450292E+001,  1.421983E+002,  0.000000E+000,  8.501421E+001, -1.137352E+001,  8.987447E+000,  3.000741E-001
 -8.008509E+001, -1.971747E+002,  0.000000E+000,  7.007136E+001,  4.990901E+000, -1.587621E+001,  3.000899E-001
  8.008509E+001,  1.971747E+002,  0.000000E+000, -7.007136E+001, -4.990901E+000,  1.587621E+001,  3.000899E-001
  1.998089E+001, -1.354771E+002,  0.000000E+000, -8.818356E+001,  1.296418E+001, -9.792659E+000,  3.001566E-001
 -1.998089E+001,  1.354771E+002,  0.000000E+000,  8.818356E+001, -1.296418E+001,  9.792659E+000,  3.001566E-001
 -7.425780E+001, -1.776698E+002,  0.000000E+000,  7.429140E+001,  5.977477E+000, -1.460538E+001,  3.001035E-001
  7.425780E+001,  1.776698E+002,  0.000000E+000, -7.429140E+001, -5.977477E+000,  1.460538E+001,  3.001035E-001
  1.488086E+001, -1.280961E+002,  0.000000E+000, -9.127581E+001,  1.436895E+001, -1.075898E+001,  3.001647E-001
 -1.488086E+001,  1.280961E+002,  0.000000E+000,  9.127581E+001, -1.436895E+001,  1.075898E+001,  3.001647E-001
 -6.772777E+001, -1.567062E+002,  0.000000E+000,  7.865177E+001,  7.002411E+000, -1.321298E+001,  3.003371E-001
  6.772777E+001,  1.567062E+002,  0.000000E+000, -7.865177E+001, -7.002411E+000,  1.321298E+001,  3.003371E-001
  9.027795E+000, -1.200039E+002,  0.000000E+000, -9.424869E+001,  1.553535E+001, -1.187359E+001,  3.000565E-001
 -9.027795E+000,  1.200039E+002,  0.000000E+000,  9.424869E+001, -1.553535E+001,  1.187359E+001,  3.000565E-001
 -6.006375E+001, -1.340961E+002,  0.000000E+000,  8.295558E+001,  8.214737E+000, -1.150771E+001,  3.000361E-001
  6.006375E+001,  1.340961E+002,  0.000000E+000, -8.295558E+001, -8.214737E+000,  1.150771E+001,  3.000361E-001
  1.991294E+000, -1.116152E+002,  0.000000E+000, -9.640257E+001,  1.523191E+001, -1.327361E+001,  3.001574E-001
 -1.991294E+000,  1.116152E+002,  0.000000E+000,  9.640257E+001, -1.523191E+001,  1.327361E+001,  3.001574E-001
 -5.103052E+001, -1.094658E+002,  0.000000E+000,  8.724416E+001,  9.513474E+000, -9.523090E+000,  3.001594E-001
  5.103052E+001,  1.094658E+002,  0.000000E+000, -8.724416E+001, -9.513474E+000,  9.523090E+000,  3.001594E-001
  1.036767E+000, -9.339465E+001,  0.000000E+000, -9.801880E+001,  1.153419E+001, -1.417081E+001,  3.001790E-001
 -1.036767E+000,  9.339465E+001,  0.000000E+000,  9.801880E+001, -1.153419E+001,  1.417081E+001,  3.001790E-001
 -4.009308E+001, -8.247515E+001,  0.000000E+000,  9.123199E+001,  1.044026E+001, -7.174132E+000,  3.002765E-001
  4.009308E+001,  8.247515E+001,  0.000000E+000, -9.123199E+001, -1.044026E+001,  7.174132E+000,  3.002765E-001
  7.360166E+000, -6.394320E+001,  0.000000E+000, -9.916460E+001,  6.412440E+000, -1.437194E+001,  3.000697E-001
 -7.360166E+000,  6.394320E+001,  0.000000E+000,  9.916460E+001, -6.412440E+000,  1.437194E+001,  3.000697E-001
 -2.829975E+001, -5.531961E+001,  0.000000E+000,  9.447541E+001,  1.007274E+001, -4.230600E+000,  3.002718E-001
  2.829975E+001,  5.531961E+001,  0.000000E+000, -9.447541E+001, -1.007274E+001,  4.230600E+000,  3.002718E-001
  1.475313E+001, -3.481015E+001,  0.000000E+000, -9.975429E+001,  1.559429E+000, -1.370712E+001,  3.001879E-001
 -1.475313E+001,  3.481015E+001,  0.000000E+000,  9.975429E+001, -1.559429E+000,  1.370712E+001,  3.001879E-001
 -1.632591E+001, -3.037340E+001,  0.000000E+000,  9.643923E+001,  7.440326E+000, -3.730223E-001,  3.002875E-001
  1.632591E+001,  3.037340E+001,  0.000000E+000, -9.643923E+001, -7.440326E+000,  3.730223E-001,  3.002875E-001
  2.397221E+001, -7.459941E+000,  0.000000E+000, -9.947756E+001, -2.525664E+000, -1.119974E+001,  3.002984E-001
 -2.397221E+001,  7.459941E+000,  0.000000E+000,  9.947756E+001,  2.525664E+000,  1.119974E+001,  3.002984E-001
 -4.971724E+000, -5.475751E+000,  0.000000E+000,  9.778004E+001,  3.773199E+000,  3.826356E+000,  3.002914E-001
  4.971724E+000,  5.475751E+000,  0.000000E+000, -9.778004E+001, -3.773199E+000, -3.826356E+000,  3.002914E-001
  3.463966E+001,  1.825567E+001,  0.000000E+000, -9.860477E+001, -6.237569E+000, -7.496237E+000,  3.000688E-001
 -3.463966E+001, -1.825567E+001,  0.000000E+000,  9.860477E+001,  6.237569E+000,  7.496237E+000,  3.000688E-001
  6.420078E+000,  1.999735E+001,  0.000000E+000,  9.878780E+001,  9.532524E-002,  7.920446E+000,  3.001516E-001
 -6.420078E+000, -1.999735E+001,  0.000000E+000, -9.878780E+001, -9.532524E-002, -7.920446E+000,  3.001516E-001
  4.564269E+001,  4.314908E+001,  0.000000E+000, -9.746095E+001, -9.814289E+000, -3.384612E+000,  3.000643E-001
 -4.564269E+001, -4.314908E+001,  0.000000E+000,  9.746095E+001,  9.814289E+000,  3.384612E+000,  3.000643E-001
  1.746790E+001,  4.600150E+001,  0.000000E+000,  9.951338E+001, -3.704203E+000,  1.141480E+001,  3.002228E-001
 -1.746790E+001, -4.600150E+001,  0.000000E+000, -9.951338E+001,  3.704203E+000, -1.141480E+001,  3.002228E-001
  4.541868E+001, -1.522626E+002,  0.000000E+000, -8.062438E+001,  1.041074E+001, -8.509413E+000,  3.001769E-001
 -4.541868E+001,  1.522626E+002,  0.000000E+000,  8.062438E+001, -1.041074E+001,  8.509413E+000,  3.001769E-001
  5.082957E+001, -1.582163E+002,  0.000000E+000, -7.729095E+001,  8.768726E+000, -8.030103E+000,  3.003546E-001
 -5.082957E+001,  1.582163E+002,  0.000000E+000,  7.729095E+001, -8.768726E+000,  8.030103E+000,  3.003546E-001
  5.553116E+001, -1.655885E+002,  0.000000E+000, -7.273595E+001,  6.801676E+000, -7.378983E+000,  3.001051E-001
 -5.553116E+001,  1.655885E+002,  0.000000E+000,  7.273595E+001, -6.801676E+000,  7.378983E+000,  3.001051E-001
  5.769053E+001, -1.732610E+002,  0.000000E+000, -6.690169E+001,  5.253966E+000, -7.349713E+000,  3.003226E-001
 -5.769053E+001,  1.732610E+002,  0.000000E+000,  6.690169E+001, -5.253966E+000,  7.349713E+000,  3.003226E-001
  5.390339E+001, -1.823046E+002,  0.000000E+000, -5.892718E+001,  5.235989E+000, -8.859469E+000,  3.002538E-001
 -5.390339E+001,  1.823046E+002,  0.000000E+000,  5.892718E+001, -5.235989E+000,  8.859469E+000,  3.002538E-001
  4.639361E+001, -1.946286E+002,  0.000000E+000, -4.731568E+001,  7.076467E+000, -1.099085E+001,  3.001634E-001
 -4.639361E+001,  1.946286E+002,  0.000000E+000,  4.731568E+001, -7.076467E+000,  1.099085E+001,  3.001634E-001
  3.791517E+001, -2.078992E+002,  0.000000E+000, -3.459574E+001,  9.156313E+000, -1.325806E+001,  3.004300E-001
 -3.791517E+001,  2.078992E+002,  0.000000E+000,  3.459574E+001, -9.156313E+000,  1.325806E+001,  3.004300E-001
  2.829989E+001, -2.216711E+002,  0.000000E+000, -2.112761E+001,  1.141844E+001, -1.558732E+001,  3.003631E-001
 -2.829989E+001,  2.216711E+002,  0.000000E+000,  2.112761E+001, -1.141844E+001,  1.558732E+001,  3.003631E-001
  1.763159E+001, -2.352553E+002,  0.000000E+000, -7.215321E+000,  1.364889E+001, -1.796887E+001,  3.001115E-001
 -1.763159E+001,  2.352553E+002,  0.000000E+000,  7.215321E+000, -1.364889E+001,  1.796887E+001,  3.001115E-001
  5.653916E+000, -2.433835E+002,  0.000000E+000,  4.195290E+000,  1.476396E+001, -1.829264E+001,  3.005513E-001
 -5.653916E+000,  2.433835E+002,  0.000000E+000, -4.195290E+000, -1.476396E+001,  1.829264E+001,  3.005513E-001
 -6.953380E+000, -2.476792E+002,  0.000000E+000,  1.435374E+001,  1.474098E+001, -1.635945E+001,  3.000646E-001
  6.953380E+000,  2.476792E+002,  0.000000E+000, -1.435374E+001, -1.474098E+001,  1.635945E+001,  3.000646E-001
 -1.805763E+001, -2.495765E+002,  0.000000E+000,  2.252278E+001,  1.372629E+001, -1.512558E+001,  3.001475E-001
  1.805763E+001,  2.495765E+002,  0.000000E+000, -2.252278E+001, -1.372629E+001,  1.512558E+001,  3.001475E-001
 -2.518188E+001, -2.489194E+002,  0.000000E+000,  2.843708E+001,  1.125434E+001, -1.593403E+001,  3.000745E-001
  2.518188E+001,  2.489194E+002,  0.000000E+000, -2.843708E+001, -1.125434E+001,  1.593403E+001,  3.000745E-001
 -3.138374E+001, -2.478038E+002,  0.000000E+000,  3.353450E+001,  8.594844E+000, -1.711420E+001,  3.000048E-001
  3.138374E+001,  2.478038E+002,  0.000000E+000, -3.353450E+001, -8.594844E+000,  1.711420E+001,  3.000048E-001
 -3.873516E+001, -2.465469E+002,  0.000000E+000,  3.873794E+001,  6.345606E+000, -1.831735E+001,  3.000272E-001
  3.873516E+001,  2.465469E+002,  0.000000E+000, -3.873794E+001, -6.345606E+000,  1.831735E+001,  3.000272E-001
 -4.694657E+001, -2.445895E+002,  0.000000E+000,  4.385122E+001,  4.183744E+000, -1.917219E+001,  3.005694E-001
  4.694657E+001,  2.445895E+002,  0.000000E+000, -4.385122E+001, -4.183744E+000,  1.917219E+001,  3.005694E-001
 -5.456652E+001, -2.411941E+002,  0.000000E+000,  4.871232E+001,  2.180622E+000, -1.935349E+001,  3.001165E-001
  5.456652E+001,  2.411941E+002,  0.000000E+000, -4.871232E+001, -2.180622E+000,  1.935349E+001,  3.001165E-001
 -6.210749E+001, -2.367508E+002,  0.000000E+000,  5.336107E+001,  9.506136E-001, -1.964278E+001,  3.004394E-001
  6.210749E+001,  2.367508E+002,  0.000000E+000, -5.336107E+001, -9.506136E-001,  1.964278E+001,  3.004394E-001
 -6.378284E+001, -2.224319E+002,  0.000000E+000,  5.883448E+001,  6.736871E-001, -1.939363E+001,  3.002472E-001
  6.378284E+001,  2.224319E+002,  0.000000E+000, -5.883448E+001, -6.736871E-001,  1.939363E+001,  3.002472E-001
 -6.250578E+001, -2.057906E+002,  0.000000E+000,  6.368261E+001,  1.344437E+000, -1.862825E+001,  3.002706E-001
  6.250578E+001,  2.057906E+002,  0.000000E+000, -6.368261E+001, -1.344437E+000,  1.862825E+001,  3.002706E-001
  4.219629E+001, -1.466401E+002,  0.000000E+000, -8.360748E+001,  1.199000E+001, -8.993818E+000,  3.002391E-001
 -4.219629E+001,  1.466401E+002,  0.000000E+000,  8.360748E+001, -1.199000E+001,  8.993818E+000,  3.002391E-001
 -5.683842E+001, -1.876309E+002,  0.000000E+000,  6.775680E+001,  1.905436E+000, -1.776614E+001,  3.001885E-001
  5.683842E+001,  1.876309E+002,  0.000000E+000, -6.775680E+001, -1.905436E+000,  1.776614E+001,  3.001885E-001
  3.802762E+001, -1.401860E+002,  0.000000E+000, -8.668103E+001,  1.346056E+001, -9.512493E+000,  3.000373E-001
 -3.802762E+001,  1.401860E+002,  0.000000E+000,  8.668103E+001, -1.346056E+001,  9.512493E+000,  3.000373E-001
 -5.047476E+001, -1.679973E+002,  0.000000E+000,  7.202589E+001,  2.642821E+000, -1.671565E+001,  3.002966E-001
  5.047476E+001,  1.679973E+002,  0.000000E+000, -7.202589E+001, -2.642821E+000,  1.671565E+001,  3.002966E-001
  3.321936E+001, -1.329698E+002,  0.000000E+000, -8.965724E+001,  1.479488E+001, -1.018609E+001,  3.002405E-001
 -3.321936E+001,  1.329698E+002,  0.000000E+000,  8.965724E+001, -1.479488E+001,  1.018609E+001,  3.002405E-001
 -4.329204E+001, -1.467226E+002,  0.000000E+000,  7.645276E+001,  3.581700E+000, -1.547348E+001,  3.002438E-001
  4.329204E+001,  1.467226E+002,  0.000000E+000, -7.645276E+001, -3.581700E+000,  1.547348E+001,  3.002438E-001
  2.812422E+001, -1.251143E+002,  0.000000E+000, -9.252642E+001,  1.591728E+001, -1.127644E+001,  3.000917E-001
 -2.812422E+001,  1.251143E+002,  0.000000E+000,  9.252642E+001, -1.591728E+001,  1.127644E+001,  3.000917E-001
 -3.491539E+001, -1.233873E+002,  0.000000E+000,  8.099866E+001,  4.738140E+000, -1.405026E+001,  3.004180E-001
  3.491539E+001,  1.233873E+002,  0.000000E+000, -8.099866E+001, -4.738140E+000,  1.405026E+001,  3.004180E-001
  2.842749E+001, -1.111382E+002,  0.000000E+000, -9.519911E+001,  1.469815E+001, -1.309416E+001,  3.003066E-001
 -2.842749E+001,  1.111382E+002,  0.000000E+000,  9.519911E+001, -1.469815E+001,  1.309416E+001,  3.003066E-001
 -2.452636E+001, -9.743380E+001,  0.000000E+000,  8.536273E+001,  6.093018E+000, -1.225280E+001,  3.004179E-001
  2.452636E+001,  9.743380E+001,  0.000000E+000, -8.536273E+001, -6.093018E+000,  1.225280E+001,  3.004179E-001
  3.535165E+001, -8.465153E+001,  0.000000E+000, -9.687779E+001,  1.029764E+001, -1.378324E+001,  3.001431E-001
 -3.535165E+001,  8.465153E+001,  0.000000E+000,  9.687779E+001, -1.029764E+001,  1.378324E+001,  3.001431E-001
 -1.284771E+001, -6.981627E+001,  0.000000E+000,  8.954496E+001,  7.300777E+000, -1.030432E+001,  3.001936E-001
  1.284771E+001,  6.981627E+001,  0.000000E+000, -8.954496E+001, -7.300777E+000,  1.030432E+001,  3.001936E-001
  4.195902E+001, -5.547081E+001,  0.000000E+000, -9.800596E+001,  5.216850E+000, -1.393811E+001,  3.000988E-001
 -4.195902E+001,  5.547081E+001,  0.000000E+000,  9.800596E+001, -5.216850E+000,  1.393811E+001,  3.000988E-001
 -2.568750E-001, -4.217124E+001,  0.000000E+000,  9.301311E+001,  7.389410E+000, -7.736664E+000,  3.002237E-001
  2.568750E-001,  4.217124E+001,  0.000000E+000, -9.301311E+001, -7.389410E+000,  7.736664E+000,  3.002237E-001
  4.845148E+001, -2.589785E+001,  0.000000E+000, -9.903328E+001,  1.389765E-001, -1.412578E+001,  3.001022E-001
 -4.845148E+001,  2.589785E+001,  0.000000E+000,  9.903328E+001, -1.389765E-001,  1.412578E+001,  3.001022E-001
  1.240715E+001, -1.682868E+001,  0.000000E+000,  9.515483E+001,  5.122110E+000, -4.056027E+000,  3.000468E-001
 -1.240715E+001,  1.682868E+001,  0.000000E+000, -9.515483E+001, -5.122110E+000,  4.056027E+000,  3.000468E-001
  5.573803E+001,  2.975013E+000,  0.000000E+000, -9.950891E+001, -4.562714E+000, -1.332199E+001,  3.002589E-001
 -5.573803E+001, -2.975013E+000,  0.000000E+000,  9.950891E+001,  4.562714E+000,  1.332199E+001,  3.002589E-001
  2.481752E+001,  7.267034E+000,  0.000000E+000,  9.660709E+001,  1.483272E+000,  9.491785E-002,  3.000715E-001
 -2.481752E+001, -7.267034E+000,  0.000000E+000, -9.660709E+001, -1.483272E+000, -9.491785E-002,  3.000715E-001
  6.465764E+001,  3.017658E+001,  0.000000E+000, -9.915819E+001, -8.579892E+000, -1.068537E+001,  3.000846E-001
 -6.465764E+001, -3.017658E+001,  0.000000E+000,  9.915819E+001,  8.579892E+000,  1.068537E+001,  3.000846E-001
  3.669628E+001,  3.262412E+001,  0.000000E+000,  9.784096E+001, -2.279342E+000,  4.219313E+000,  3.004283E-001
 -3.669628E+001, -3.262412E+001,  0.000000E+000, -9.784096E+001,  2.279342E+000, -4.219313E+000,  3.004283E-001
  7.498334E+001,  5.557771E+001,  0.000000E+000, -9.817691E+001, -1.228489E+001, -6.920590E+000,  3.004221E-001
 -7.498334E+001, -5.557771E+001,  0.000000E+000,  9.817691E+001,  1.228489E+001,  6.920590E+000,  3.004221E-001
  4.837031E+001,  5.838488E+001,  0.000000E+000,  9.868097E+001, -6.031468E+000,  8.218187E+000,  3.001455E-001
 -4.837031E+001, -5.838488E+001,  0.000000E+000, -9.868097E+001,  6.031468E+000, -8.218187E+000,  3.001455E-001
  8.542377E+001,  8.074052E+001,  0.000000E+000, -9.664770E+001, -1.539163E+001, -2.955039E+000,  3.004193E-001
 -8.542377E+001, -8.074052E+001,  0.000000E+000,  9.664770E+001,  1.539163E+001,  2.955039E+000,  3.004193E-001
  5.779408E+001,  8.261689E+001,  0.000000E+000,  9.900014E+001, -9.760520E+000,  1.135409E+001,  3.004122E-001
 -5.779408E+001, -8.261689E+001,  0.000000E+000, -9.900014E+001,  9.760520E+000, -1.135409E+001,  3.004122E-001
  9.438311E+001,  1.064286E+002,  0.000000E+000, -9.379956E+001, -1.649309E+001,  4.603453E-001,  3.002107E-001
 -9.438311E+001, -1.064286E+002,  0.000000E+000,  9.379956E+001,  1.649309E+001, -4.603453E-001,  3.002107E-001
  5.247585E+001,  9.184893E+001,  0.000000E+000,  9.836082E+001, -1.083021E+001,  1.226689E+001,  3.004517E-001
 -5.247585E+001, -9.184893E+001,  0.000000E+000, -9.836082E+001,  1.083021E+001, -1.226689E+001,  3.004517E-001
  1.024219E+002,  1.309658E+002,  0.000000E+000, -9.004865E+001, -1.587346E+001,  3.104544E+000,  3.003178E-001
 -1.024219E+002, -1.309658E+002,  0.000000E+000,  9.004865E+001,  1.587346E+001, -3.104544E+000,  3.003178E-001
  4.430869E+001,  9.962007E+001,  0.000000E+000,  9.721253E+001, -1.188089E+001,  1.180106E+001,  3.003900E-001
 -4.430869E+001, -9.962007E+001,  0.000000E+000, -9.721253E+001,  1.188089E+001, -1.180106E+001,  3.003900E-001
  1.097081E+002,  1.544876E+002,  0.000000E+000, -8.590287E+001, -1.465458E+001,  5.489789E+000,  3.000348E-001
 -1.097081E+002, -1.544876E+002,  0.000000E+000,  8.590287E+001,  1.465458E+001, -5.489789E+000,  3.000348E-001
  3.562145E+001,  1.081462E+002,  0.000000E+000,  9.471245E+001, -1.168647E+001,  1.052804E+001,  3.001370E-001
 -3.562145E+001, -1.081462E+002,  0.000000E+000, -9.471245E+001,  1.168647E+001, -1.052804E+001,  3.001370E-001
  5.833432E+001, -1.550513E+002,  0.000000E+000, -7.843960E+001,  9.808060E+000, -7.877423E+000,  3.002192E-001
 -5.833432E+001,  1.550513E+002,  0.000000E+000,  7.843960E+001, -9.808060E+000,  7.877423E+000,  3.002192E-001
  6.407310E+001, -1.606968E+002,  0.000000E+000, -7.529494E+001,  8.308970E+000, -7.393829E+000,  3.002525E-001
 -6.407310E+001,  1.606968E+002,  0.000000E+000,  7.529494E+001, -8.308970E+000,  7.393829E+000,  3.002525E-001
  6.777380E+001, -1.664807E+002,  0.000000E+000, -7.173087E+001,  6.935274E+000, -7.594425E+000,  3.005160E-001
 -6.777380E+001,  1.664807E+002,  0.000000E+000,  7.173087E+001, -6.935274E+000,  7.594425E+000,  3.005160E-001
  6.762170E+001, -1.722816E+002,  0.000000E+000, -6.772691E+001,  5.911721E+000, -8.991523E+000,  3.004661E-001
 -6.762170E+001,  1.722816E+002,  0.000000E+000,  6.772691E+001, -5.911721E+000,  8.991523E+000,  3.004661E-001
  6.460580E+001, -1.802067E+002,  0.000000E+000, -6.116534E+001,  5.795808E+000, -1.081410E+001,  3.003499E-001
 -6.460580E+001,  1.802067E+002,  0.000000E+000,  6.116534E+001, -5.795808E+000,  1.081410E+001,  3.003499E-001
  5.802617E+001, -1.919496E+002,  0.000000E+000, -5.051933E+001,  7.564097E+000, -1.299554E+001,  3.001321E-001
 -5.802617E+001,  1.919496E+002,  0.000000E+000,  5.051933E+001, -7.564097E+000,  1.299554E+001,  3.001321E-001
  4.987439E+001, -2.051101E+002,  0.000000E+000, -3.843459E+001,  9.961087E+000, -1.543296E+001,  3.003928E-001
 -4.987439E+001,  2.051101E+002,  0.000000E+000,  3.843459E+001, -9.961087E+000,  1.543296E+001,  3.003928E-001
  4.126605E+001, -2.188027E+002,  0.000000E+000, -2.552157E+001,  1.260950E+001, -1.801072E+001,  3.001370E-001
 -4.126605E+001,  2.188027E+002,  0.000000E+000,  2.552157E+001, -1.260950E+001,  1.801072E+001,  3.001370E-001
  3.182801E+001, -2.321261E+002,  0.000000E+000, -1.235284E+001,  1.528255E+001, -2.048545E+001,  3.002783E-001
 -3.182801E+001,  2.321261E+002,  0.000000E+000,  1.235284E+001, -1.528255E+001,  2.048545E+001,  3.002783E-001
  2.031250E+001, -2.393699E+002,  0.000000E+000, -1.561222E+000,  1.621357E+001, -1.987482E+001,  3.001801E-001
 -2.031250E+001,  2.393699E+002,  0.000000E+000,  1.561222E+000, -1.621357E+001,  1.987482E+001,  3.001801E-001
  7.839780E+000, -2.434334E+002,  0.000000E+000,  8.282280E+000,  1.594163E+001, -1.747330E+001,  3.002550E-001
 -7.839780E+000,  2.434334E+002,  0.000000E+000, -8.282280E+000, -1.594163E+001,  1.747330E+001,  3.002550E-001
 -3.656038E+000, -2.461662E+002,  0.000000E+000,  1.756086E+001,  1.553232E+001, -1.526089E+001,  3.002628E-001
  3.656038E+000,  2.461662E+002,  0.000000E+000, -1.756086E+001, -1.553232E+001,  1.526089E+001,  3.002628E-001
 -1.193650E+001, -2.462838E+002,  0.000000E+000,  2.485468E+001,  1.386909E+001, -1.489177E+001,  3.002584E-001
  1.193650E+001,  2.462838E+002,  0.000000E+000, -2.485468E+001, -1.386909E+001,  1.489177E+001,  3.002584E-001
 -1.714819E+001, -2.449005E+002,  0.000000E+000,  2.987399E+001,  1.084877E+001, -1.592681E+001,  3.000545E-001
  1.714819E+001,  2.449005E+002,  0.000000E+000, -2.987399E+001, -1.084877E+001,  1.592681E+001,  3.000545E-001
 -2.188588E+001, -2.430524E+002,  0.000000E+000,  3.439501E+001,  7.685750E+000, -1.720576E+001,  3.003356E-001
  2.188588E+001,  2.430524E+002,  0.000000E+000, -3.439501E+001, -7.685750E+000,  1.720576E+001,  3.003356E-001
 -2.630860E+001, -2.400268E+002,  0.000000E+000,  3.893039E+001,  4.715793E+000, -1.842632E+001,  3.002432E-001
  2.630860E+001,  2.400268E+002,  0.000000E+000, -3.893039E+001, -4.715793E+000,  1.842632E+001,  3.002432E-001
 -3.119330E+001, -2.353673E+002,  0.000000E+000,  4.381751E+001,  2.168986E+000, -1.929419E+001,  3.004641E-001
  3.119330E+001,  2.353673E+002,  0.000000E+000, -4.381751E+001, -2.168986E+000,  1.929419E+001,  3.004641E-001
 -3.387726E+001, -2.242064E+002,  0.000000E+000,  4.904047E+001,  4.702229E-001, -1.880006E+001,  3.002354E-001
  3.387726E+001,  2.242064E+002,  0.000000E+000, -4.904047E+001, -4.702229E-001,  1.880006E+001,  3.002354E-001
 -3.574728E+001, -2.097505E+002,  0.000000E+000,  5.477695E+001, -1.375974E-001, -1.859064E+001,  3.002253E-001
  3.574728E+001,  2.097505E+002,  0.000000E+000, -5.477695E+001,  1.375974E-001,  1.859064E+001,  3.002253E-001
 -3.758720E+001, -1.950282E+002,  0.000000E+000,  6.028688E+001, -1.434914E-001, -1.863092E+001,  3.001473E-001
  3.758720E+001,  1.950282E+002,  0.000000E+000, -6.028688E+001,  1.434914E-001,  1.863092E+001,  3.001473E-001
  5.514292E+001, -1.497842E+002,  0.000000E+000, -8.084673E+001,  1.094568E+001, -8.075251E+000,  3.002433E-001
 -5.514292E+001,  1.497842E+002,  0.000000E+000,  8.084673E+001, -1.094568E+001,  8.075251E+000,  3.002433E-001
 -3.221723E+001, -1.772905E+002,  0.000000E+000,  6.458203E+001, -2.490612E-001, -1.838162E+001,  3.002790E-001
  3.221723E+001,  1.772905E+002,  0.000000E+000, -6.458203E+001,  2.490612E-001,  1.838162E+001,  3.002790E-001
  5.151454E+001, -1.435990E+002,  0.000000E+000, -8.351372E+001,  1.219039E+001, -8.339522E+000,  3.005709E-001
 -5.151454E+001,  1.435990E+002,  0.000000E+000,  8.351372E+001, -1.219039E+001,  8.339522E+000,  3.005709E-001
 -2.615374E+001, -1.578594E+002,  0.000000E+000,  6.912993E+001, -2.290295E-001, -1.796234E+001,  3.002221E-001
  2.615374E+001,  1.578594E+002,  0.000000E+000, -6.912993E+001,  2.290295E-001,  1.796234E+001,  3.002221E-001
  4.734849E+001, -1.366297E+002,  0.000000E+000, -8.639154E+001,  1.354598E+001, -8.674519E+000,  3.000780E-001
 -4.734849E+001,  1.366297E+002,  0.000000E+000,  8.639154E+001, -1.354598E+001,  8.674519E+000,  3.000780E-001
 -1.873421E+001, -1.363434E+002,  0.000000E+000,  7.377339E+001,  1.982329E-001, -1.717697E+001,  3.000726E-001
  1.873421E+001,  1.363434E+002,  0.000000E+000, -7.377339E+001, -1.982329E-001,  1.717697E+001,  3.000726E-001
  4.686073E+001, -1.236276E+002,  0.000000E+000, -8.967786E+001,  1.374651E+001, -8.997761E+000,  3.004448E-001
 -4.686073E+001,  1.236276E+002,  0.000000E+000,  8.967786E+001, -1.374651E+001,  8.997761E+000,  3.004448E-001
 -9.461836E+000, -1.120864E+002,  0.000000E+000,  7.851714E+001,  1.085284E+000, -1.604329E+001,  3.003136E-001
  9.461836E+000,  1.120864E+002,  0.000000E+000, -7.851714E+001, -1.085284E+000,  1.604329E+001,  3.003136E-001
  5.601342E+001, -9.975519E+001,  0.000000E+000, -9.279962E+001,  1.150472E+001, -1.021964E+001,  3.001218E-001
 -5.601342E+001,  9.975519E+001,  0.000000E+000,  9.279962E+001, -1.150472E+001,  1.021964E+001,  3.001218E-001
  1.461919E+000, -8.545574E+001,  0.000000E+000,  8.317159E+001,  2.261485E+000, -1.450080E+001,  3.000748E-001
 -1.461919E+000,  8.545574E+001,  0.000000E+000, -8.317159E+001, -2.261485E+000,  1.450080E+001,  3.000748E-001
  6.681694E+001, -7.474203E+001,  0.000000E+000, -9.515776E+001,  8.309973E+000, -1.246732E+001,  3.001040E-001
 -6.681694E+001,  7.474203E+001,  0.000000E+000,  9.515776E+001, -8.309973E+000,  1.246732E+001,  3.001040E-001
  1.365725E+001, -5.757893E+001,  0.000000E+000,  8.752939E+001,  3.686838E+000, -1.272519E+001,  3.003198E-001
 -1.365725E+001,  5.757893E+001,  0.000000E+000, -8.752939E+001, -3.686838E+000,  1.272519E+001,  3.003198E-001
  7.554890E+001, -4.724116E+001,  0.000000E+000, -9.672287E+001,  4.035522E+000, -1.336228E+001,  3.003106E-001
 -7.554890E+001,  4.724116E+001,  0.000000E+000,  9.672287E+001, -4.035522E+000,  1.336228E+001,  3.003106E-001
  2.696587E+001, -2.921878E+001,  0.000000E+000,  9.139289E+001,  4.527801E+000, -1.087356E+001,  3.002772E-001
 -2.696587E+001,  2.921878E+001,  0.000000E+000, -9.139289E+001, -4.527801E+000,  1.087356E+001,  3.002772E-001
  8.226180E+001, -1.811910E+001,  0.000000E+000, -9.777247E+001, -9.976048E-001, -1.349955E+001,  3.004092E-001
 -8.226180E+001,  1.811910E+001,  0.000000E+000,  9.777247E+001,  9.976048E-001,  1.349955E+001,  3.004092E-001
  4.047716E+001, -3.320227E+000,  0.000000E+000,  9.378685E+001,  2.805957E+000, -7.685545E+000,  3.000503E-001
 -4.047716E+001,  3.320227E+000,  0.000000E+000, -9.378685E+001, -2.805957E+000,  7.685545E+000,  3.000503E-001
  8.885280E+001,  1.141552E+001,  0.000000E+000, -9.871815E+001, -6.065464E+000, -1.359872E+001,  3.003502E-001
 -8.885280E+001, -1.141552E+001,  0.000000E+000,  9.871815E+001,  6.065464E+000,  1.359872E+001,  3.003502E-001
  5.346723E+001,  2.055944E+001,  0.000000E+000,  9.524856E+001, -7.762289E-001, -3.529179E+000,  3.000812E-001
 -5.346723E+001, -2.055944E+001,  0.000000E+000, -9.524856E+001,  7.762289E-001,  3.529179E+000,  3.000812E-001
  9.606892E+001,  4.016961E+001,  0.000000E+000, -9.904326E+001, -1.076992E+001, -1.264392E+001,  3.003346E-001
 -9.606892E+001, -4.016961E+001,  0.000000E+000,  9.904326E+001,  1.076992E+001,  1.264392E+001,  3.003346E-001
  6.635295E+001,  4.531105E+001,  0.000000E+000,  9.659071E+001, -4.601552E+000,  5.166553E-001,  3.001605E-001
 -6.635295E+001, -4.531105E+001,  0.000000E+000, -9.659071E+001,  4.601552E+000, -5.166553E-001,  3.001605E-001
  1.046108E+002,  6.715592E+001,  0.000000E+000, -9.853718E+001, -1.489598E+001, -1.007263E+001,  3.003842E-001
 -1.046108E+002, -6.715592E+001,  0.000000E+000,  9.853718E+001,  1.489598E+001,  1.007263E+001,  3.003842E-001
  7.837237E+001,  7.068111E+001,  0.000000E+000,  9.750622E+001, -8.395116E+000,  4.445683E+000,  3.002405E-001
 -7.837237E+001, -7.068111E+001,  0.000000E+000, -9.750622E+001,  8.395116E+000, -4.445683E+000,  3.002405E-001
  1.131703E+002,  9.150888E+001,  0.000000E+000, -9.717620E+001, -1.822674E+001, -6.376693E+000,  3.004226E-001
 -1.131703E+002, -9.150888E+001,  0.000000E+000,  9.717620E+001,  1.822674E+001,  6.376693E+000,  3.004226E-001
  7.591362E+001,  8.077867E+001,  0.000000E+000,  9.748660E+001, -9.304988E+000,  7.021850E+000,  3.002046E-001
 -7.591362E+001, -8.077867E+001,  0.000000E+000, -9.748660E+001,  9.304988E+000, -7.021850E+000,  3.002046E-001
  1.207487E+002,  1.161911E+002,  0.000000E+000, -9.461998E+001, -1.950755E+001, -3.112996E+000,  3.003380E-001
 -1.207487E+002, -1.161911E+002,  0.000000E+000,  9.461998E+001,  1.950755E+001,  3.112996E+000,  3.003380E-001
  7.065762E+001,  8.755941E+001,  0.000000E+000,  9.725191E+001, -9.676855E+000,  8.904366E+000,  3.001501E-001
 -7.065762E+001, -8.755941E+001,  0.000000E+000, -9.725191E+001,  9.676855E+000, -8.904366E+000,  3.001501E-001
  1.276921E+002,  1.410130E+002,  0.000000E+000, -9.109759E+001, -1.906837E+001, -3.036966E-001,  3.000213E-001
 -1.276921E+002, -1.410130E+002,  0.000000E+000,  9.109759E+001,  1.906837E+001,  3.036966E-001,  3.000213E-001
  6.437375E+001,  9.451169E+001,  0.000000E+000,  9.657156E+001, -1.008826E+001,  1.000358E+001,  3.001607E-001
 -6.437375E+001, -9.451169E+001,  0.000000E+000, -9.657156E+001,  1.008826E+001, -1.000358E+001,  3.001607E-001
  1.341786E+002,  1.644787E+002,  0.000000E+000, -8.699951E+001, -1.774623E+001,  2.178417E+000,  3.002454E-001
 -1.341786E+002, -1.644787E+002,  0.000000E+000,  8.699951E+001,  1.774623E+001, -2.178417E+000,  3.002454E-001
  5.665097E+001,  1.022743E+002,  0.000000E+000,  9.478811E+001, -9.842630E+000,  9.934430E+000,  3.003315E-001
 -5.665097E+001, -1.022743E+002,  0.000000E+000, -9.478811E+001,  9.842630E+000, -9.934430E+000,  3.003315E-001
  1.401728E+002,  1.861993E+002,  0.000000E+000, -8.300815E+001, -1.649855E+001,  4.531994E+000,  3.001427E-001
 -1.401728E+002, -1.861993E+002,  0.000000E+000,  8.300815E+001,  1.649855E+001, -4.531994E+000,  3.001427E-001
  4.815475E+001,  1.108362E+002,  0.000000E+000,  9.176228E+001, -8.792684E+000,  8.922009E+000,  3.002394E-001
 -4.815475E+001, -1.108362E+002,  0.000000E+000, -9.176228E+001,  8.792684E+000, -8.922009E+000,  3.002394E-001
  1.455184E+002,  2.061906E+002,  0.000000E+000, -7.915131E+001, -1.517006E+001,  6.663177E+000,  3.001798E-001
 -1.455184E+002, -2.061906E+002,  0.000000E+000,  7.915131E+001,  1.517006E+001, -6.663177E+000,  3.001798E-001
  4.049298E+001,  1.187582E+002,  0.000000E+000,  8.872334E+001, -7.546235E+000,  8.055388E+000,  3.002754E-001
 -4.049298E+001, -1.187582E+002,  0.000000E+000, -8.872334E+001,  7.546235E+000, -8.055388E+000,  3.002754E-001
  1.495484E+002,  2.240858E+002,  0.000000E+000, -7.539526E+001, -1.399102E+001,  8.478342E+000,  3.001959E-001
 -1.495484E+002, -2.240858E+002,  0.000000E+000,  7.539526E+001,  1.399102E+001, -8.478342E+000,  3.001959E-001
  3.355086E+001,  1.259098E+002,  0.000000E+000,  8.564323E+001, -6.149433E+000,  7.291409E+000,  3.002515E-001
 -3.355086E+001, -1.259098E+002,  0.000000E+000, -8.564323E+001,  6.149433E+000, -7.291409E+000,  3.002515E-001
  6.818693E+001, -1.568885E+002,  0.000000E+000, -7.586948E+001,  8.568110E+000, -6.775261E+000,  3.003141E-001
 -6.818693E+001,  1.568885E+002,  0.000000E+000,  7.586948E+001, -8.568110E+000,  6.775261E+000,  3.003141E-001
  7.225226E+001, -1.611443E+002,  0.000000E+000, -7.328126E+001,  7.346664E+000, -6.938691E+000,  3.000340E-001
 -7.225226E+001,  1.611443E+002,  0.000000E+000,  7.328126E+001, -7.346664E+000,  6.938691E+000,  3.000340E-001
  7.380810E+001, -1.647995E+002,  0.000000E+000, -7.094429E+001,  6.255623E+000, -8.064717E+000,  3.006094E-001
 -7.380810E+001,  1.647995E+002,  0.000000E+000,  7.094429E+001, -6.255623E+000,  8.064717E+000,  3.006094E-001
  7.338759E+001, -1.695875E+002,  0.000000E+000, -6.767770E+001,  5.276606E+000, -9.775273E+000,  3.004349E-001
 -7.338759E+001,  1.695875E+002,  0.000000E+000,  6.767770E+001, -5.276606E+000,  9.775273E+000,  3.004349E-001
  7.102115E+001, -1.770908E+002,  0.000000E+000, -6.205520E+001,  5.064134E+000, -1.162607E+001,  3.006125E-001
 -7.102115E+001,  1.770908E+002,  0.000000E+000,  6.205520E+001, -5.064134E+000,  1.162607E+001,  3.006125E-001
  6.569061E+001, -1.881403E+002,  0.000000E+000, -5.278379E+001,  6.887813E+000, -1.394945E+001,  3.001360E-001
 -6.569061E+001,  1.881403E+002,  0.000000E+000,  5.278379E+001, -6.887813E+000,  1.394945E+001,  3.001360E-001
  5.886928E+001, -2.010911E+002,  0.000000E+000, -4.148900E+001,  9.655978E+000, -1.662317E+001,  3.004583E-001
 -5.886928E+001,  2.010911E+002,  0.000000E+000,  4.148900E+001, -9.655978E+000,  1.662317E+001,  3.004583E-001
  5.157724E+001, -2.149548E+002,  0.000000E+000, -2.916172E+001,  1.265063E+001, -1.955580E+001,  3.003299E-001
 -5.157724E+001,  2.149548E+002,  0.000000E+000,  2.916172E+001, -1.265063E+001,  1.955580E+001,  3.003299E-001
  4.365690E+001, -2.282757E+002,  0.000000E+000, -1.645720E+001,  1.569618E+001, -2.230784E+001,  3.000477E-001
 -4.365690E+001,  2.282757E+002,  0.000000E+000,  1.645720E+001, -1.569618E+001,  2.230784E+001,  3.000477E-001
  3.376453E+001, -2.347462E+002,  0.000000E+000, -7.066758E+000,  1.711581E+001, -2.093764E+001,  3.002926E-001
 -3.376453E+001,  2.347462E+002,  0.000000E+000,  7.066758E+000, -1.711581E+001,  2.093764E+001,  3.002926E-001
  2.170914E+001, -2.389364E+002,  0.000000E+000,  2.393697E+000,  1.692725E+001, -1.866893E+001,  3.000710E-001
 -2.170914E+001,  2.389364E+002,  0.000000E+000, -2.393697E+000, -1.692725E+001,  1.866893E+001,  3.000710E-001
  1.049954E+001, -2.412941E+002,  0.000000E+000,  1.204734E+001,  1.631054E+001, -1.617054E+001,  3.003382E-001
 -1.049954E+001,  2.412941E+002,  0.000000E+000, -1.204734E+001, -1.631054E+001,  1.617054E+001,  3.003382E-001
  6.079370E+000, -2.375499E+002,  0.000000E+000,  2.080604E+001,  1.433331E+001, -1.425462E+001,  3.002911E-001
 -6.079370E+000,  2.375499E+002,  0.000000E+000, -2.080604E+001, -1.433331E+001,  1.425462E+001,  3.002911E-001
  3.456085E+000, -2.339651E+002,  0.000000E+000,  2.635543E+001,  1.133161E+001, -1.451823E+001,  3.004618E-001
 -3.456085E+000,  2.339651E+002,  0.000000E+000, -2.635543E+001, -1.133161E+001,  1.451823E+001,  3.004618E-001
  1.142722E+000, -2.293816E+002,  0.000000E+000,  3.120263E+001,  8.013312E+000, -1.538235E+001,  3.001704E-001
 -1.142722E+000,  2.293816E+002,  0.000000E+000, -3.120263E+001, -8.013312E+000,  1.538235E+001,  3.001704E-001
 -7.604387E-001, -2.242040E+002,  0.000000E+000,  3.574927E+001,  4.716528E+000, -1.637541E+001,  3.000876E-001
  7.604387E-001,  2.242040E+002,  0.000000E+000, -3.574927E+001, -4.716528E+000,  1.637541E+001,  3.000876E-001
 -2.845467E+000, -2.181281E+002,  0.000000E+000,  4.024734E+001,  1.832814E+000, -1.715514E+001,  3.000245E-001
  2.845467E+000,  2.181281E+002,  0.000000E+000, -4.024734E+001, -1.832814E+000,  1.715514E+001,  3.000245E-001
 -5.731371E+000, -2.090519E+002,  0.000000E+000,  4.528217E+001,  9.817704E-002, -1.748031E+001,  3.001275E-001
  5.731371E+000,  2.090519E+002,  0.000000E+000, -4.528217E+001, -9.817704E-002,  1.748031E+001,  3.001275E-001
 -8.959049E+000, -1.967423E+002,  0.000000E+000,  5.084017E+001, -6.070121E-001, -1.740769E+001,  3.001976E-001
  8.959049E+000,  1.967423E+002,  0.000000E+000, -5.084017E+001,  6.070121E-001,  1.740769E+001,  3.001976E-001
 -1.205297E+001, -1.836145E+002,  0.000000E+000,  5.632629E+001, -6.837683E-001, -1.765851E+001,  3.003986E-001
  1.205297E+001,  1.836145E+002,  0.000000E+000, -5.632629E+001,  6.837683E-001,  1.765851E+001,  3.003986E-001
  6.598362E+001, -1.519413E+002,  0.000000E+000, -7.799746E+001,  9.646573E+000, -6.866396E+000,  3.005702E-001
 -6.598362E+001,  1.519413E+002,  0.000000E+000,  7.799746E+001, -9.646573E+000,  6.866396E+000,  3.005702E-001
 -5.778114E+000, -1.659756E+002,  0.000000E+000,  6.030726E+001, -8.476783E-001, -1.740959E+001,  3.003502E-001
  5.778114E+000,  1.659756E+002,  0.000000E+000, -6.030726E+001,  8.476783E-001,  1.740959E+001,  3.003502E-001
  6.329103E+001, -1.461290E+002,  0.000000E+000, -8.040167E+001,  1.084071E+001, -7.080809E+000,  3.003651E-001
 -6.329103E+001,  1.461290E+002,  0.000000E+000,  8.040167E+001, -1.084071E+001,  7.080809E+000,  3.003651E-001
  1.072714E+000, -1.464562E+002,  0.000000E+000,  6.470142E+001, -9.113912E-001, -1.705612E+001,  3.000278E-001
 -1.072714E+000,  1.464562E+002,  0.000000E+000, -6.470142E+001,  9.113912E-001,  1.705612E+001,  3.000278E-001
  6.243466E+001, -1.365028E+002,  0.000000E+000, -8.328567E+001,  1.155733E+001, -7.130697E+000,  3.005428E-001
 -6.243466E+001,  1.365028E+002,  0.000000E+000,  8.328567E+001, -1.155733E+001,  7.130697E+000,  3.005428E-001
  8.955197E+000, -1.245927E+002,  0.000000E+000,  6.946467E+001, -8.922345E-001, -1.661723E+001,  3.002577E-001
 -8.955197E+000,  1.245927E+002,  0.000000E+000, -6.946467E+001,  8.922345E-001,  1.661723E+001,  3.002577E-001
  7.130136E+001, -1.127340E+002,  0.000000E+000, -8.695720E+001,  1.061953E+001, -6.684486E+000,  3.005053E-001
 -7.130136E+001,  1.127340E+002,  0.000000E+000,  8.695720E+001, -1.061953E+001,  6.684486E+000,  3.005053E-001
  1.819448E+001, -1.001649E+002,  0.000000E+000,  7.455004E+001, -8.802292E-001, -1.610970E+001,  3.002852E-001
 -1.819448E+001,  1.001649E+002,  0.000000E+000, -7.455004E+001,  8.802292E-001,  1.610970E+001,  3.002852E-001
  8.216743E+001, -8.719070E+001,  0.000000E+000, -9.015767E+001,  8.773311E+000, -7.283008E+000,  3.004386E-001
 -8.216743E+001,  8.719070E+001,  0.000000E+000,  9.015767E+001, -8.773311E+000,  7.283008E+000,  3.004386E-001
  2.832775E+001, -7.390715E+001,  0.000000E+000,  7.981868E+001, -7.041130E-001, -1.541869E+001,  3.003902E-001
 -2.832775E+001,  7.390715E+001,  0.000000E+000, -7.981868E+001,  7.041130E-001,  1.541869E+001,  3.003902E-001
  9.373216E+001, -6.314207E+001,  0.000000E+000, -9.263594E+001,  5.725429E+000, -9.423272E+000,  3.003363E-001
 -9.373216E+001,  6.314207E+001,  0.000000E+000,  9.263594E+001, -5.725429E+000,  9.423272E+000,  3.003363E-001
  3.981080E+001, -4.587124E+001,  0.000000E+000,  8.493612E+001, -3.529815E-002, -1.426878E+001,  3.003418E-001
 -3.981080E+001,  4.587124E+001,  0.000000E+000, -8.493612E+001,  3.529815E-002,  1.426878E+001,  3.003418E-001
  1.053814E+002, -3.802658E+001,  0.000000E+000, -9.479404E+001,  2.227020E+000, -1.163187E+001,  3.000511E-001
 -1.053814E+002,  3.802658E+001,  0.000000E+000,  9.479404E+001, -2.227020E+000,  1.163187E+001,  3.000511E-001
  5.305694E+001, -1.655427E+001,  0.000000E+000,  8.947179E+001,  1.169727E+000, -1.285454E+001,  3.000151E-001
 -5.305694E+001,  1.655427E+001,  0.000000E+000, -8.947179E+001, -1.169727E+000,  1.285454E+001,  3.000151E-001
  1.150660E+002, -1.044126E+001,  0.000000E+000, -9.635978E+001, -2.056603E+000, -1.288528E+001,  3.001773E-001
 -1.150660E+002,  1.044126E+001,  0.000000E+000,  9.635978E+001,  2.056603E+000,  1.288528E+001,  3.001773E-001
  6.775540E+001,  1.019034E+001,  0.000000E+000,  9.227075E+001,  3.080986E-001, -1.086347E+001,  3.002101E-001
 -6.775540E+001, -1.019034E+001,  0.000000E+000, -9.227075E+001, -3.080986E-001,  1.086347E+001,  3.002101E-001
  1.219129E+002,  1.866332E+001,  0.000000E+000, -9.736008E+001, -7.114105E+000, -1.301828E+001,  3.001435E-001
 -1.219129E+002, -1.866332E+001,  0.000000E+000,  9.736008E+001,  7.114105E+000,  1.301828E+001,  3.001435E-001
  8.176164E+001,  3.404605E+001,  0.000000E+000,  9.368418E+001, -2.910726E+000, -6.972976E+000,  3.004270E-001
 -8.176164E+001, -3.404605E+001,  0.000000E+000, -9.368418E+001,  2.910726E+000,  6.972976E+000,  3.004270E-001
  1.284990E+002,  4.795989E+001,  0.000000E+000, -9.810081E+001, -1.214104E+001, -1.294540E+001,  3.004262E-001
 -1.284990E+002, -4.795989E+001,  0.000000E+000,  9.810081E+001,  1.214104E+001,  1.294540E+001,  3.004262E-001
  9.553833E+001,  5.859601E+001,  0.000000E+000,  9.479359E+001, -6.276914E+000, -2.505571E+000,  3.004071E-001
 -9.553833E+001, -5.859601E+001,  0.000000E+000, -9.479359E+001,  6.276914E+000,  2.505571E+000,  3.004071E-001
  1.342898E+002,  7.557035E+001,  0.000000E+000, -9.819894E+001, -1.692635E+001, -1.197936E+001,  3.000827E-001
 -1.342898E+002, -7.557035E+001,  0.000000E+000,  9.819894E+001,  1.692635E+001,  1.197936E+001,  3.000827E-001
  9.668621E+001,  7.117067E+001,  0.000000E+000,  9.516888E+001, -7.099446E+000,  5.485521E-001,  3.003186E-001
 -9.668621E+001, -7.117067E+001,  0.000000E+000, -9.516888E+001,  7.099446E+000, -5.485521E-001,  3.003186E-001
  1.401102E+002,  1.004398E+002,  0.000000E+000, -9.739688E+001, -2.074671E+001, -9.561829E+000,  3.000405E-001
 -1.401102E+002, -1.004398E+002,  0.000000E+000,  9.739688E+001,  2.074671E+001,  9.561829E+000,  3.000405E-001
  9.206615E+001,  7.804162E+001,  0.000000E+000,  9.523419E+001, -7.201009E+000,  3.059817E+000,  3.002360E-001
 -9.206615E+001, -7.804162E+001,  0.000000E+000, -9.523419E+001,  7.201009E+000, -3.059817E+000,  3.002360E-001
  1.466336E+002,  1.251797E+002,  0.000000E+000, -9.515323E+001, -2.230585E+001, -6.456572E+000,  3.000924E-001
 -1.466336E+002, -1.251797E+002,  0.000000E+000,  9.515323E+001,  2.230585E+001,  6.456572E+000,  3.000924E-001
  8.703419E+001,  8.472017E+001,  0.000000E+000,  9.510341E+001, -7.332303E+000,  5.643281E+000,  3.004241E-001
 -8.703419E+001, -8.472017E+001,  0.000000E+000, -9.510341E+001,  7.332303E+000, -5.643281E+000,  3.004241E-001
  1.528668E+002,  1.501157E+002,  0.000000E+000, -9.185554E+001, -2.203074E+001, -3.727170E+000,  3.000696E-001
 -1.528668E+002, -1.501157E+002,  0.000000E+000,  9.185554E+001,  2.203074E+001,  3.727170E+000,  3.000696E-001
  8.200445E+001,  9.085786E+001,  0.000000E+000,  9.481392E+001, -7.507763E+000,  7.611442E+000,  3.004267E-001
 -8.200445E+001, -9.085786E+001,  0.000000E+000, -9.481392E+001,  7.507763E+000, -7.611442E+000,  3.004267E-001
  1.586577E+002,  1.740378E+002,  0.000000E+000, -8.803310E+001, -2.084834E+001, -1.183006E+000,  3.003437E-001
 -1.586577E+002, -1.740378E+002,  0.000000E+000,  8.803310E+001,  2.084834E+001,  1.183006E+000,  3.003437E-001
  7.590930E+001,  9.719574E+001,  0.000000E+000,  9.414606E+001, -7.792347E+000,  8.792320E+000,  3.001177E-001
 -7.590930E+001, -9.719574E+001,  0.000000E+000, -9.414606E+001,  7.792347E+000, -8.792320E+000,  3.001177E-001
  1.637865E+002,  1.957890E+002,  0.000000E+000, -8.405733E+001, -1.949006E+001,  1.309967E+000,  3.002340E-001
 -1.637865E+002, -1.957890E+002,  0.000000E+000,  8.405733E+001,  1.949006E+001, -1.309967E+000,  3.002340E-001
  6.767373E+001,  1.052573E+002,  0.000000E+000,  9.176543E+001, -7.082643E+000,  8.412938E+000,  3.000868E-001
 -6.767373E+001, -1.052573E+002,  0.000000E+000, -9.176543E+001,  7.082643E+000, -8.412938E+000,  3.000868E-001
  1.682588E+002,  2.153816E+002,  0.000000E+000, -8.024851E+001, -1.815804E+001,  3.584418E+000,  3.002395E-001
 -1.682588E+002, -2.153816E+002,  0.000000E+000,  8.024851E+001,  1.815804E+001, -3.584418E+000,  3.002395E-001
  5.927647E+001,  1.133414E+002,  0.000000E+000,  8.872147E+001, -5.881315E+000,  7.570444E+000,  3.002420E-001
 -5.927647E+001, -1.133414E+002,  0.000000E+000, -8.872147E+001,  5.881315E+000, -7.570444E+000,  3.002420E-001
  1.684039E+002,  2.283291E+002,  0.000000E+000, -7.708959E+001, -1.664133E+001,  5.676028E+000,  3.000863E-001
 -1.684039E+002, -2.283291E+002,  0.000000E+000,  7.708959E+001,  1.664133E+001, -5.676028E+000,  3.000863E-001
  5.249253E+001,  1.214454E+002,  0.000000E+000,  8.480806E+001, -4.533146E+000,  6.848207E+000,  3.001691E-001
 -5.249253E+001, -1.214454E+002,  0.000000E+000, -8.480806E+001,  4.533146E+000, -6.848207E+000,  3.001691E-001
  1.625963E+002,  2.325527E+002,  0.000000E+000, -7.462158E+001, -1.526285E+001,  7.354168E+000,  3.002079E-001
 -1.625963E+002, -2.325527E+002,  0.000000E+000,  7.462158E+001,  1.526285E+001, -7.354168E+000,  3.002079E-001
  1.617655E+002,  2.359624E+002,  0.000000E+000, -7.263710E+001, -1.488125E+001,  7.876075E+000,  3.001963E-001
 -1.617655E+002, -2.359624E+002,  0.000000E+000,  7.263710E+001,  1.488125E+001, -7.876075E+000,  3.001963E-001
  1.598894E+002,  2.389016E+002,  0.000000E+000, -7.027052E+001, -1.429192E+001,  8.410415E+000,  3.001892E-001
 -1.598894E+002, -2.389016E+002,  0.000000E+000,  7.027052E+001,  1.429192E+001, -8.410415E+000,  3.001892E-001
  1.571453E+002,  2.410285E+002,  0.000000E+000, -6.761943E+001, -1.350152E+001,  8.950099E+000,  3.003220E-001
 -1.571453E+002, -2.410285E+002,  0.000000E+000,  6.761943E+001,  1.350152E+001, -8.950099E+000,  3.003220E-001
  1.538772E+002,  2.432023E+002,  0.000000E+000, -6.463379E+001, -1.248007E+001,  9.520438E+000,  3.004466E-001
 -1.538772E+002, -2.432023E+002,  0.000000E+000,  6.463379E+001,  1.248007E+001, -9.520438E+000,  3.004466E-001
  1.501731E+002,  2.454675E+002,  0.000000E+000, -6.134777E+001, -1.131683E+001,  1.008263E+001,  3.002726E-001
 -1.501731E+002, -2.454675E+002,  0.000000E+000,  6.134777E+001,  1.131683E+001, -1.008263E+001,  3.002726E-001
  1.460096E+002,  2.478314E+002,  0.000000E+000, -5.762918E+001, -1.018712E+001,  1.051810E+001,  3.000940E-001
 -1.460096E+002, -2.478314E+002,  0.000000E+000,  5.762918E+001,  1.018712E+001, -1.051810E+001,  3.000940E-001
  1.407867E+002,  2.501009E+002,  0.000000E+000, -5.321866E+001, -9.444950E+000,  1.047852E+001,  3.004507E-001
 -1.407867E+002, -2.501009E+002,  0.000000E+000,  5.321866E+001,  9.444950E+000, -1.047852E+001,  3.004507E-001
  1.339895E+002,  2.515095E+002,  0.000000E+000, -4.846794E+001, -8.975991E+000,  1.000289E+001,  3.005203E-001
 -1.339895E+002, -2.515095E+002,  0.000000E+000,  4.846794E+001,  8.975991E+000, -1.000289E+001,  3.005203E-001
  1.254339E+002,  2.508123E+002,  0.000000E+000, -4.191092E+001, -8.957623E+000,  8.632381E+000,  3.002443E-001
 -1.254339E+002, -2.508123E+002,  0.000000E+000,  4.191092E+001,  8.957623E+000, -8.632381E+000,  3.002443E-001
  1.154017E+002,  2.380636E+002,  0.000000E+000, -2.629218E+001, -8.347708E+000,  7.980921E+000,  3.002232E-001
 -1.154017E+002, -2.380636E+002,  0.000000E+000,  2.629218E+001,  8.347708E+000, -7.980921E+000,  3.002232E-001
  1.058051E+002,  2.236411E+002,  0.000000E+000, -1.049839E+001, -7.572300E+000,  7.709160E+000,  3.000143E-001
 -1.058051E+002, -2.236411E+002,  0.000000E+000,  1.049839E+001,  7.572300E+000, -7.709160E+000,  3.000143E-001
  9.652280E+001,  2.090537E+002,  0.000000E+000,  4.280677E+000, -6.747001E+000,  7.328237E+000,  3.000011E-001
 -9.652280E+001, -2.090537E+002,  0.000000E+000, -4.280677E+000,  6.747001E+000, -7.328237E+000,  3.000011E-001
  8.770461E+001,  1.951681E+002,  0.000000E+000,  1.798467E+001, -6.056244E+000,  7.086539E+000,  3.000571E-001
 -8.770461E+001, -1.951681E+002,  0.000000E+000, -1.798467E+001,  6.056244E+000, -7.086539E+000,  3.000571E-001
  7.950717E+001,  1.821867E+002,  0.000000E+000,  3.068999E+001, -5.405134E+000,  6.897136E+000,  3.003684E-001
 -7.950717E+001, -1.821867E+002,  0.000000E+000, -3.068999E+001,  5.405134E+000, -6.897136E+000,  3.003684E-001
  7.182841E+001,  1.699673E+002,  0.000000E+000,  4.250331E+001, -4.785754E+000,  6.712916E+000,  3.002431E-001
 -7.182841E+001, -1.699673E+002,  0.000000E+000, -4.250331E+001,  4.785754E+000, -6.712916E+000,  3.002431E-001
  6.468901E+001,  1.586115E+002,  0.000000E+000,  5.337796E+001, -4.207524E+000,  6.511066E+000,  3.000101E-001
 -6.468901E+001, -1.586115E+002,  0.000000E+000, -5.337796E+001,  4.207524E+000, -6.511066E+000,  3.000101E-001
  5.807806E+001,  1.480503E+002,  0.000000E+000,  6.344237E+001, -3.652257E+000,  6.294877E+000,  3.003179E-001
 -5.807806E+001, -1.480503E+002,  0.000000E+000, -6.344237E+001,  3.652257E+000, -6.294877E+000,  3.003179E-001
  5.199060E+001,  1.382195E+002,  0.000000E+000,  7.274317E+001, -3.145834E+000,  6.097852E+000,  3.000697E-001
 -5.199060E+001, -1.382195E+002,  0.000000E+000, -7.274317E+001,  3.145834E+000, -6.097852E+000,  3.000697E-001
  4.777924E+001,  1.300133E+002,  0.000000E+000,  7.989702E+001, -3.623356E+000,  6.356089E+000,  3.002531E-001
 -4.777924E+001, -1.300133E+002,  0.000000E+000, -7.989702E+001,  3.623356E+000, -6.356089E+000,  3.002531E-001
  7.560752E+001, -1.570401E+002,  0.000000E+000, -7.400468E+001,  7.740392E+000, -6.417903E+000,  3.001804E-001
 -7.560752E+001,  1.570401E+002,  0.000000E+000,  7.400468E+001, -7.740392E+000,  6.417903E+000,  3.001804E-001
  7.774034E+001, -1.598738E+002,  0.000000E+000, -7.220866E+001,  6.689958E+000, -7.313801E+000,  3.002900E-001
 -7.774034E+001,  1.598738E+002,  0.000000E+000,  7.220866E+001, -6.689958E+000,  7.313801E+000,  3.002900E-001
  7.850765E+001, -1.625928E+002,  0.000000E+000, -7.049980E+001,  5.632462E+000, -8.789681E+000,  3.005676E-001
 -7.850765E+001,  1.625928E+002,  0.000000E+000,  7.049980E+001, -5.632462E+000,  8.789681E+000,  3.005676E-001
  7.835835E+001, -1.669300E+002,  0.000000E+000, -6.751004E+001,  4.598080E+000, -1.045507E+001,  3.000596E-001
 -7.835835E+001,  1.669300E+002,  0.000000E+000,  6.751004E+001, -4.598080E+000,  1.045507E+001,  3.000596E-001
  7.655787E+001, -1.733197E+002,  0.000000E+000, -6.265079E+001,  4.262595E+000, -1.225021E+001,  3.000837E-001
 -7.655787E+001,  1.733197E+002,  0.000000E+000,  6.265079E+001, -4.262595E+000,  1.225021E+001,  3.000837E-001
  7.208300E+001, -1.831086E+002,  0.000000E+000, -5.453707E+001,  5.559338E+000, -1.443478E+001,  3.000360E-001
 -7.208300E+001,  1.831086E+002,  0.000000E+000,  5.453707E+001, -5.559338E+000,  1.443478E+001,  3.000360E-001
  6.578082E+001, -1.953839E+002,  0.000000E+000, -4.376387E+001,  8.173874E+000, -1.703251E+001,  3.003271E-001
 -6.578082E+001,  1.953839E+002,  0.000000E+000,  4.376387E+001, -8.173874E+000,  1.703251E+001,  3.003271E-001
  5.904611E+001, -2.086361E+002,  0.000000E+000, -3.200463E+001,  1.100702E+001, -1.987440E+001,  3.001137E-001
 -5.904611E+001,  2.086361E+002,  0.000000E+000,  3.200463E+001, -1.100702E+001,  1.987440E+001,  3.001137E-001
  5.208345E+001, -2.223731E+002,  0.000000E+000, -1.945951E+001,  1.401254E+001, -2.297581E+001,  3.004228E-001
 -5.208345E+001,  2.223731E+002,  0.000000E+000,  1.945951E+001, -1.401254E+001,  2.297581E+001,  3.004228E-001
  4.647080E+001, -2.286347E+002,  0.000000E+000, -1.146193E+001,  1.703279E+001, -2.199197E+001,  3.001155E-001
 -4.647080E+001,  2.286347E+002,  0.000000E+000,  1.146193E+001, -1.703279E+001,  2.199197E+001,  3.001155E-001
  4.040766E+001, -2.280934E+002,  0.000000E+000, -2.034319E+000,  1.705285E+001, -1.872635E+001,  3.004190E-001
 -4.040766E+001,  2.280934E+002,  0.000000E+000,  2.034319E+000, -1.705285E+001,  1.872635E+001,  3.004190E-001
  3.668603E+001, -2.221952E+002,  0.000000E+000,  9.381381E+000,  1.550177E+001, -1.469855E+001,  3.001868E-001
 -3.668603E+001,  2.221952E+002,  0.000000E+000, -9.381381E+000, -1.550177E+001,  1.469855E+001,  3.001868E-001
  3.370631E+001, -2.166925E+002,  0.000000E+000,  1.865917E+001,  1.359470E+001, -1.229798E+001,  3.000948E-001
 -3.370631E+001,  2.166925E+002,  0.000000E+000, -1.865917E+001, -1.359470E+001,  1.229798E+001,  3.000948E-001
  3.148264E+001, -2.129383E+002,  0.000000E+000,  2.424730E+001,  1.082113E+001, -1.225232E+001,  3.002195E-001
 -3.148264E+001,  2.129383E+002,  0.000000E+000, -2.424730E+001, -1.082113E+001,  1.225232E+001,  3.002195E-001
  2.895647E+001, -2.088694E+002,  0.000000E+000,  2.896222E+001,  7.736772E+000, -1.301703E+001,  3.001251E-001
 -2.895647E+001,  2.088694E+002,  0.000000E+000, -2.896222E+001, -7.736772E+000,  1.301703E+001,  3.001251E-001
  2.637257E+001, -2.045581E+002,  0.000000E+000,  3.337582E+001,  4.593043E+000, -1.398350E+001,  3.001095E-001
 -2.637257E+001,  2.045581E+002,  0.000000E+000, -3.337582E+001, -4.593043E+000,  1.398350E+001,  3.001095E-001
  2.362013E+001, -2.001724E+002,  0.000000E+000,  3.739008E+001,  1.775794E+000, -1.488036E+001,  3.002768E-001
 -2.362013E+001,  2.001724E+002,  0.000000E+000, -3.739008E+001, -1.775794E+000,  1.488036E+001,  3.002768E-001
  2.011928E+001, -1.936750E+002,  0.000000E+000,  4.186201E+001, -1.497719E-001, -1.553084E+001,  3.003752E-001
 -2.011928E+001,  1.936750E+002,  0.000000E+000, -4.186201E+001,  1.497719E-001,  1.553084E+001,  3.003752E-001
  1.600255E+001, -1.837875E+002,  0.000000E+000,  4.713013E+001, -9.618025E-001, -1.592771E+001,  3.001356E-001
 -1.600255E+001,  1.837875E+002,  0.000000E+000, -4.713013E+001,  9.618025E-001,  1.592771E+001,  3.001356E-001
  1.180124E+001, -1.721849E+002,  0.000000E+000,  5.257338E+001, -1.070508E+000, -1.632188E+001,  3.004141E-001
 -1.180124E+001,  1.721849E+002,  0.000000E+000, -5.257338E+001,  1.070508E+000,  1.632188E+001,  3.004141E-001
  7.520140E+001, -1.530886E+002,  0.000000E+000, -7.555302E+001,  8.570714E+000, -5.972856E+000,  3.000268E-001
 -7.520140E+001,  1.530886E+002,  0.000000E+000,  7.555302E+001, -8.570714E+000,  5.972856E+000,  3.000268E-001
  1.905722E+001, -1.544696E+002,  0.000000E+000,  5.625757E+001, -1.202999E+000, -1.599377E+001,  3.001571E-001
 -1.905722E+001,  1.544696E+002,  0.000000E+000, -5.625757E+001,  1.202999E+000,  1.599377E+001,  3.001571E-001
  7.509092E+001, -1.463921E+002,  0.000000E+000, -7.768938E+001,  9.278005E+000, -5.739503E+000,  3.004117E-001
 -7.509092E+001,  1.463921E+002,  0.000000E+000,  7.768938E+001, -9.278005E+000,  5.739503E+000,  3.004117E-001
  2.722408E+001, -1.347571E+002,  0.000000E+000,  6.028900E+001, -1.257018E+000, -1.559436E+001,  3.001989E-001
 -2.722408E+001,  1.347571E+002,  0.000000E+000, -6.028900E+001,  1.257018E+000,  1.559436E+001,  3.001989E-001
  8.384308E+001, -1.255579E+002,  0.000000E+000, -8.088494E+001,  8.591667E+000, -5.154834E+000,  3.005468E-001
 -8.384308E+001,  1.255579E+002,  0.000000E+000,  8.088494E+001, -8.591667E+000,  5.154834E+000,  3.005468E-001
  3.651253E+001, -1.123561E+002,  0.000000E+000,  6.474075E+001, -1.319788E+000, -1.508685E+001,  3.002529E-001
 -3.651253E+001,  1.123561E+002,  0.000000E+000, -6.474075E+001,  1.319788E+000,  1.508685E+001,  3.002529E-001
  9.467981E+001, -1.006552E+002,  0.000000E+000, -8.434857E+001,  7.714284E+000, -4.542597E+000,  3.003524E-001
 -9.467981E+001,  1.006552E+002,  0.000000E+000,  8.434857E+001, -7.714284E+000,  4.542597E+000,  3.003524E-001
  4.643708E+001, -8.825615E+001,  0.000000E+000,  6.950290E+001, -1.354561E+000, -1.451738E+001,  3.004104E-001
 -4.643708E+001,  8.825615E+001,  0.000000E+000, -6.950290E+001,  1.354561E+000,  1.451738E+001,  3.004104E-001
  1.060935E+002, -7.548663E+001,  0.000000E+000, -8.758796E+001,  6.200616E+000, -4.608734E+000,  3.000856E-001
 -1.060935E+002,  7.548663E+001,  0.000000E+000,  8.758796E+001, -6.200616E+000,  4.608734E+000,  3.000856E-001
  5.709427E+001, -6.248884E+001,  0.000000E+000,  7.455492E+001, -1.344924E+000, -1.391865E+001,  3.001229E-001
 -5.709427E+001,  6.248884E+001,  0.000000E+000, -7.455492E+001,  1.344924E+000,  1.391865E+001,  3.001229E-001
  1.180656E+002, -5.184442E+001,  0.000000E+000, -9.006989E+001,  3.363627E+000, -6.364631E+000,  3.000441E-001
 -1.180656E+002,  5.184442E+001,  0.000000E+000,  9.006989E+001, -3.363627E+000,  6.364631E+000,  3.000441E-001
  6.855117E+001, -3.474361E+001,  0.000000E+000,  7.990480E+001, -1.390436E+000, -1.306663E+001,  3.003429E-001
 -6.855117E+001,  3.474361E+001,  0.000000E+000, -7.990480E+001,  1.390436E+000,  1.306663E+001,  3.003429E-001
  1.305783E+002, -2.752106E+001,  0.000000E+000, -9.234555E+001,  8.015663E-002, -8.580406E+000,  3.004265E-001
 -1.305783E+002,  2.752106E+001,  0.000000E+000,  9.234555E+001, -8.015663E-002,  8.580406E+000,  3.004265E-001
  8.098805E+001, -5.241437E+000,  0.000000E+000,  8.523190E+001, -1.031067E+000, -1.202764E+001,  3.004066E-001
 -8.098805E+001,  5.241437E+000,  0.000000E+000, -8.523190E+001,  1.031067E+000,  1.202764E+001,  3.004066E-001
  1.431535E+002, -2.037854E+000,  0.000000E+000, -9.430665E+001, -3.702837E+000, -1.088631E+001,  3.001959E-001
 -1.431535E+002,  2.037854E+000,  0.000000E+000,  9.430665E+001,  3.702837E+000,  1.088631E+001,  3.001959E-001
  9.491996E+001,  2.408572E+001,  0.000000E+000,  8.956834E+001, -9.309840E-001, -1.080917E+001,  3.002207E-001
 -9.491996E+001, -2.408572E+001,  0.000000E+000, -8.956834E+001,  9.309840E-001,  1.080917E+001,  3.002207E-001
  1.537868E+002,  2.567774E+001,  0.000000E+000, -9.584734E+001, -7.972909E+000, -1.243089E+001,  3.003695E-001
 -1.537868E+002, -2.567774E+001,  0.000000E+000,  9.584734E+001,  7.972909E+000,  1.243089E+001,  3.003695E-001
  1.104817E+002,  4.832034E+001,  0.000000E+000,  9.121935E+001, -3.268593E+000, -8.504780E+000,  3.002025E-001
 -1.104817E+002, -4.832034E+001,  0.000000E+000, -9.121935E+001,  3.268593E+000,  8.504780E+000,  3.002025E-001
  1.595735E+002,  5.376049E+001,  0.000000E+000, -9.664205E+001, -1.308690E+001, -1.248502E+001,  3.000565E-001
 -1.595735E+002, -5.376049E+001,  0.000000E+000,  9.664205E+001,  1.308690E+001,  1.248502E+001,  3.000565E-001
  1.147163E+002,  6.245968E+001,  0.000000E+000,  9.194246E+001, -4.384878E+000, -5.342500E+000,  3.004613E-001
 -1.147163E+002, -6.245968E+001,  0.000000E+000, -9.194246E+001,  4.384878E+000,  5.342500E+000,  3.004613E-001
  1.636333E+002,  8.076905E+001,  0.000000E+000, -9.708744E+001, -1.805301E+001, -1.221635E+001,  3.000605E-001
 -1.636333E+002, -8.076905E+001,  0.000000E+000,  9.708744E+001,  1.805301E+001,  1.221635E+001,  3.000605E-001
  1.107862E+002,  6.933803E+001,  0.000000E+000,  9.243502E+001, -4.491477E+000, -2.440109E+000,  3.001967E-001
 -1.107862E+002, -6.933803E+001,  0.000000E+000, -9.243502E+001,  4.491477E+000,  2.440109E+000,  3.001967E-001
  1.679193E+002,  1.070697E+002,  0.000000E+000, -9.699419E+001, -2.256556E+001, -1.127197E+001,  3.001984E-001
 -1.679193E+002, -1.070697E+002,  0.000000E+000,  9.699419E+001,  2.256556E+001,  1.127197E+001,  3.001984E-001
  1.066945E+002,  7.586399E+001,  0.000000E+000,  9.267651E+001, -4.667519E+000, -3.831986E-002,  3.002630E-001
 -1.066945E+002, -7.586399E+001,  0.000000E+000, -9.267651E+001,  4.667519E+000,  3.831986E-002,  3.002630E-001
  1.727000E+002,  1.332002E+002,  0.000000E+000, -9.546625E+001, -2.489485E+001, -9.524387E+000,  3.001511E-001
 -1.727000E+002, -1.332002E+002,  0.000000E+000,  9.546625E+001,  2.489485E+001,  9.524387E+000,  3.001511E-001
  1.022170E+002,  8.207907E+001,  0.000000E+000,  9.272348E+001, -4.883365E+000,  2.239956E+000,  3.002112E-001
 -1.022170E+002, -8.207907E+001,  0.000000E+000, -9.272348E+001,  4.883365E+000, -2.239956E+000,  3.002112E-001
  1.776960E+002,  1.583612E+002,  0.000000E+000, -9.241988E+001, -2.480443E+001, -6.978563E+000,  3.001550E-001
 -1.776960E+002, -1.583612E+002,  0.000000E+000,  9.241988E+001,  2.480443E+001,  6.978563E+000,  3.001550E-001
  9.721641E+001,  8.808760E+001,  0.000000E+000,  9.267356E+001, -5.123620E+000,  4.623190E+000,  3.004577E-001
 -9.721641E+001, -8.808760E+001,  0.000000E+000, -9.267356E+001,  5.123620E+000, -4.623190E+000,  3.004577E-001
  1.817614E+002,  1.819126E+002,  0.000000E+000, -8.880660E+001, -2.362821E+001, -4.315741E+000,  3.001238E-001
 -1.817614E+002, -1.819126E+002,  0.000000E+000,  8.880660E+001,  2.362821E+001,  4.315741E+000,  3.001238E-001
  9.217475E+001,  9.368594E+001,  0.000000E+000,  9.244889E+001, -5.342042E+000,  6.587649E+000,  3.001973E-001
 -9.217475E+001, -9.368594E+001,  0.000000E+000, -9.244889E+001,  5.342042E+000, -6.587649E+000,  3.001973E-001
  1.847055E+002,  2.030674E+002,  0.000000E+000, -8.500974E+001, -2.217364E+001, -1.585187E+000,  3.000706E-001
 -1.847055E+002, -2.030674E+002,  0.000000E+000,  8.500974E+001,  2.217364E+001,  1.585187E+000,  3.000706E-001
  8.605448E+001,  1.000830E+002,  0.000000E+000,  9.147497E+001, -5.324786E+000,  7.746355E+000,  3.003942E-001
 -8.605448E+001, -1.000830E+002,  0.000000E+000, -9.147497E+001,  5.324786E+000, -7.746355E+000,  3.003942E-001
  1.867572E+002,  2.213286E+002,  0.000000E+000, -8.131309E+001, -2.064413E+001,  1.051437E+000,  3.000398E-001
 -1.867572E+002, -2.213286E+002,  0.000000E+000,  8.131309E+001,  2.064413E+001, -1.051437E+000,  3.000398E-001
  7.793398E+001,  1.086550E+002,  0.000000E+000,  8.809714E+001, -4.245695E+000,  7.139267E+000,  3.000096E-001
 -7.793398E+001, -1.086550E+002,  0.000000E+000, -8.809714E+001,  4.245695E+000, -7.139267E+000,  3.000096E-001
  1.843496E+002,  2.296476E+002,  0.000000E+000, -7.874513E+001, -1.917639E+001,  2.787439E+000,  3.001723E-001
 -1.843496E+002, -2.296476E+002,  0.000000E+000,  7.874513E+001,  1.917639E+001, -2.787439E+000,  3.001723E-001
  7.171030E+001,  1.181290E+002,  0.000000E+000,  8.300446E+001, -3.344220E+000,  6.592338E+000,  3.001975E-001
 -7.171030E+001, -1.181290E+002,  0.000000E+000, -8.300446E+001,  3.344220E+000, -6.592338E+000,  3.001975E-001
  1.776015E+002,  2.329313E+002,  0.000000E+000, -7.631311E+001, -1.771484E+001,  4.646373E+000,  3.003134E-001
 -1.776015E+002, -2.329313E+002,  0.000000E+000,  7.631311E+001,  1.771484E+001, -4.646373E+000,  3.003134E-001
  1.773552E+002,  2.358040E+002,  0.000000E+000, -7.453340E+001, -1.743954E+001,  5.070053E+000,  3.002599E-001
 -1.773552E+002, -2.358040E+002,  0.000000E+000,  7.453340E+001,  1.743954E+001, -5.070053E+000,  3.002599E-001
  1.762239E+002,  2.380393E+002,  0.000000E+000, -7.244710E+001, -1.685697E+001,  5.556017E+000,  3.002481E-001
 -1.762239E+002, -2.380393E+002,  0.000000E+000,  7.244710E+001,  1.685697E+001, -5.556017E+000,  3.002481E-001
  1.741873E+002,  2.399578E+002,  0.000000E+000, -6.999837E+001, -1.611577E+001,  6.007889E+000,  3.000418E-001
 -1.741873E+002, -2.399578E+002,  0.000000E+000,  6.999837E+001,  1.611577E+001, -6.007889E+000,  3.000418E-001
  1.718018E+002,  2.419622E+002,  0.000000E+000, -6.725659E+001, -1.526749E+001,  6.440783E+000,  3.002630E-001
 -1.718018E+002, -2.419622E+002,  0.000000E+000,  6.725659E+001,  1.526749E+001, -6.440783E+000,  3.002630E-001
  1.691405E+002,  2.440908E+002,  0.000000E+000, -6.412894E+001, -1.427692E+001,  6.871367E+000,  3.004335E-001
 -1.691405E+002, -2.440908E+002,  0.000000E+000,  6.412894E+001,  1.427692E+001, -6.871367E+000,  3.004335E-001
  1.661743E+002,  2.462878E+002,  0.000000E+000, -6.059784E+001, -1.318794E+001,  7.242469E+000,  3.000858E-001
 -1.661743E+002, -2.462878E+002,  0.000000E+000,  6.059784E+001,  1.318794E+001, -7.242469E+000,  3.000858E-001
  1.628791E+002,  2.483246E+002,  0.000000E+000, -5.670956E+001, -1.205098E+001,  7.528851E+000,  3.003731E-001
 -1.628791E+002, -2.483246E+002,  0.000000E+000,  5.670956E+001,  1.205098E+001, -7.528851E+000,  3.003731E-001
  1.589148E+002,  2.488403E+002,  0.000000E+000, -5.205465E+001, -1.058856E+001,  7.924854E+000,  3.004970E-001
 -1.589148E+002, -2.488403E+002,  0.000000E+000,  5.205465E+001,  1.058856E+001, -7.924854E+000,  3.004970E-001
  1.531099E+002,  2.446279E+002,  0.000000E+000, -4.358299E+001, -9.024669E+000,  8.339705E+000,  3.003767E-001
 -1.531099E+002, -2.446279E+002,  0.000000E+000,  4.358299E+001,  9.024669E+000, -8.339705E+000,  3.003767E-001
  1.426968E+002,  2.309128E+002,  0.000000E+000, -2.749870E+001, -8.343157E+000,  8.109532E+000,  3.001026E-001
 -1.426968E+002, -2.309128E+002,  0.000000E+000,  2.749870E+001,  8.343157E+000, -8.109532E+000,  3.001026E-001
  1.325438E+002,  2.175122E+002,  0.000000E+000, -1.226556E+001, -7.572089E+000,  7.908238E+000,  3.000880E-001
 -1.325438E+002, -2.175122E+002,  0.000000E+000,  1.226556E+001,  7.572089E+000, -7.908238E+000,  3.000880E-001
  1.222568E+002,  2.039549E+002,  0.000000E+000,  2.015473E+000, -6.854165E+000,  7.668270E+000,  3.003095E-001
 -1.222568E+002, -2.039549E+002,  0.000000E+000, -2.015473E+000,  6.854165E+000, -7.668270E+000,  3.003095E-001
  1.125541E+002,  1.908251E+002,  0.000000E+000,  1.538709E+001, -6.157218E+000,  7.380025E+000,  3.003882E-001
 -1.125541E+002, -1.908251E+002,  0.000000E+000, -1.538709E+001,  6.157218E+000, -7.380025E+000,  3.003882E-001
  1.035146E+002,  1.784532E+002,  0.000000E+000,  2.779371E+001, -5.495474E+000,  7.131804E+000,  3.003063E-001
 -1.035146E+002, -1.784532E+002,  0.000000E+000, -2.779371E+001,  5.495474E+000, -7.131804E+000,  3.003063E-001
  9.509038E+001,  1.667552E+002,  0.000000E+000,  3.932587E+001, -4.892553E+000,  6.915633E+000,  3.000839E-001
 -9.509038E+001, -1.667552E+002,  0.000000E+000, -3.932587E+001,  4.892553E+000, -6.915633E+000,  3.000839E-001
  8.727453E+001,  1.558580E+002,  0.000000E+000,  5.001438E+001, -4.355518E+000,  6.735243E+000,  3.001279E-001
 -8.727453E+001, -1.558580E+002,  0.000000E+000, -5.001438E+001,  4.355518E+000, -6.735243E+000,  3.001279E-001
  8.001894E+001,  1.456884E+002,  0.000000E+000,  5.994901E+001, -3.842564E+000,  6.558126E+000,  3.002347E-001
 -8.001894E+001, -1.456884E+002,  0.000000E+000, -5.994901E+001,  3.842564E+000, -6.558126E+000,  3.002347E-001
  7.328037E+001,  1.362071E+002,  0.000000E+000,  6.913308E+001, -3.334502E+000,  6.378956E+000,  3.003255E-001
 -7.328037E+001, -1.362071E+002,  0.000000E+000, -6.913308E+001,  3.334502E+000, -6.378956E+000,  3.003255E-001
  6.706730E+001,  1.274497E+002,  0.000000E+000,  7.745557E+001, -2.939140E+000,  6.275892E+000,  3.000430E-001
 -6.706730E+001, -1.274497E+002,  0.000000E+000, -7.745557E+001,  2.939140E+000, -6.275892E+000,  3.000430E-001
  8.089070E+001, -1.559140E+002,  0.000000E+000, -7.287951E+001,  7.105854E+000, -6.714191E+000,  3.001987E-001
 -8.089070E+001,  1.559140E+002,  0.000000E+000,  7.287951E+001, -7.105854E+000,  6.714191E+000,  3.001987E-001
  8.208252E+001, -1.578964E+002,  0.000000E+000, -7.159376E+001,  6.148355E+000, -7.998351E+000,  3.002249E-001
 -8.208252E+001,  1.578964E+002,  0.000000E+000,  7.159376E+001, -6.148355E+000,  7.998351E+000,  3.002249E-001
  8.300772E+001, -1.602904E+002,  0.000000E+000, -7.005568E+001,  5.123424E+000, -9.456755E+000,  3.000262E-001
 -8.300772E+001,  1.602904E+002,  0.000000E+000,  7.005568E+001, -5.123424E+000,  9.456755E+000,  3.000262E-001
  8.308497E+001, -1.642244E+002,  0.000000E+000, -6.731156E+001,  4.062670E+000, -1.108663E+001,  3.003094E-001
 -8.308497E+001,  1.642244E+002,  0.000000E+000,  6.731156E+001, -4.062670E+000,  1.108663E+001,  3.003094E-001
  8.172366E+001, -1.697046E+002,  0.000000E+000, -6.314282E+001,  3.556583E+000, -1.286086E+001,  3.003209E-001
 -8.172366E+001,  1.697046E+002,  0.000000E+000,  6.314282E+001, -3.556583E+000,  1.286086E+001,  3.003209E-001
  7.811352E+001, -1.782683E+002,  0.000000E+000, -5.604285E+001,  4.368322E+000, -1.492461E+001,  3.005301E-001
 -7.811352E+001,  1.782683E+002,  0.000000E+000,  5.604285E+001, -4.368322E+000,  1.492461E+001,  3.005301E-001
  7.313696E+001, -1.891655E+002,  0.000000E+000, -4.562604E+001,  6.802499E+000, -1.746535E+001,  3.006212E-001
 -7.313696E+001,  1.891655E+002,  0.000000E+000,  4.562604E+001, -6.802499E+000,  1.746535E+001,  3.006212E-001
  6.891622E+001, -1.999060E+002,  0.000000E+000, -3.395753E+001,  9.435153E+000, -2.008065E+001,  3.002421E-001
 -6.891622E+001,  1.999060E+002,  0.000000E+000,  3.395753E+001, -9.435153E+000,  2.008065E+001,  3.002421E-001
  6.893278E+001, -2.068562E+002,  0.000000E+000, -2.045181E+001,  1.188485E+001, -2.211880E+001,  3.003126E-001
 -6.893278E+001,  2.068562E+002,  0.000000E+000,  2.045181E+001, -1.188485E+001,  2.211880E+001,  3.003126E-001
  7.034348E+001, -2.073834E+002,  0.000000E+000, -1.147506E+001,  1.462402E+001, -2.037749E+001,  3.000473E-001
 -7.034348E+001,  2.073834E+002,  0.000000E+000,  1.147506E+001, -1.462402E+001,  2.037749E+001,  3.000473E-001
  6.900877E+001, -2.042405E+002,  0.000000E+000, -3.225268E+000,  1.570008E+001, -1.670967E+001,  3.005369E-001
 -6.900877E+001,  2.042405E+002,  0.000000E+000,  3.225268E+000, -1.570008E+001,  1.670967E+001,  3.005369E-001
  6.458359E+001, -1.999149E+002,  0.000000E+000,  7.545516E+000,  1.465473E+001, -1.298324E+001,  3.004076E-001
 -6.458359E+001,  1.999149E+002,  0.000000E+000, -7.545516E+000, -1.465473E+001,  1.298324E+001,  3.004076E-001
  6.039350E+001, -1.957553E+002,  0.000000E+000,  1.680452E+001,  1.295919E+001, -1.043835E+001,  3.005883E-001
 -6.039350E+001,  1.957553E+002,  0.000000E+000, -1.680452E+001, -1.295919E+001,  1.043835E+001,  3.005883E-001
  5.728218E+001, -1.928836E+002,  0.000000E+000,  2.244939E+001,  1.044187E+001, -1.017423E+001,  3.002662E-001
 -5.728218E+001,  1.928836E+002,  0.000000E+000, -2.244939E+001, -1.044187E+001,  1.017423E+001,  3.002662E-001
  5.431369E+001, -1.898992E+002,  0.000000E+000,  2.693678E+001,  7.557170E+000, -1.083082E+001,  3.001649E-001
 -5.431369E+001,  1.898992E+002,  0.000000E+000, -2.693678E+001, -7.557170E+000,  1.083082E+001,  3.001649E-001
  5.113770E+001, -1.864395E+002,  0.000000E+000,  3.120782E+001,  4.559701E+000, -1.176454E+001,  3.002168E-001
 -5.113770E+001,  1.864395E+002,  0.000000E+000, -3.120782E+001, -4.559701E+000,  1.176454E+001,  3.002168E-001
  4.777574E+001, -1.831383E+002,  0.000000E+000,  3.494813E+001,  1.852058E+000, -1.274068E+001,  3.002016E-001
 -4.777574E+001,  1.831383E+002,  0.000000E+000, -3.494813E+001, -1.852058E+000,  1.274068E+001,  3.002016E-001
  4.389848E+001, -1.785985E+002,  0.000000E+000,  3.888922E+001, -2.461383E-001, -1.346000E+001,  3.001015E-001
 -4.389848E+001,  1.785985E+002,  0.000000E+000, -3.888922E+001,  2.461383E-001,  1.346000E+001,  3.001015E-001
  3.914337E+001, -1.709935E+002,  0.000000E+000,  4.369901E+001, -1.269238E+000, -1.405691E+001,  3.002471E-001
 -3.914337E+001,  1.709935E+002,  0.000000E+000, -4.369901E+001,  1.269238E+000,  1.405691E+001,  3.002471E-001
  3.415452E+001, -1.608700E+002,  0.000000E+000,  4.902292E+001, -1.427385E+000, -1.459613E+001,  3.001283E-001
 -3.415452E+001,  1.608700E+002,  0.000000E+000, -4.902292E+001,  1.427385E+000,  1.459613E+001,  3.001283E-001
  8.306759E+001, -1.509565E+002,  0.000000E+000, -7.409246E+001,  7.597243E+000, -5.891818E+000,  3.006171E-001
 -8.306759E+001,  1.509565E+002,  0.000000E+000,  7.409246E+001, -7.597243E+000,  5.891818E+000,  3.006171E-001
  4.251164E+001, -1.427413E+002,  0.000000E+000,  5.247886E+001, -1.540873E+000, -1.410495E+001,  3.003225E-001
 -4.251164E+001,  1.427413E+002,  0.000000E+000, -5.247886E+001,  1.540873E+000,  1.410495E+001,  3.003225E-001
  9.363427E+001, -1.348024E+002,  0.000000E+000, -7.594570E+001,  6.807722E+000, -4.335295E+000,  3.001062E-001
 -9.363427E+001,  1.348024E+002,  0.000000E+000,  7.594570E+001, -6.807722E+000,  4.335295E+000,  3.001062E-001
  5.198813E+001, -1.225491E+002,  0.000000E+000,  5.621654E+001, -1.687794E+000, -1.362535E+001,  3.003256E-001
 -5.198813E+001,  1.225491E+002,  0.000000E+000, -5.621654E+001,  1.687794E+000,  1.362535E+001,  3.003256E-001
  1.048640E+002, -1.134176E+002,  0.000000E+000, -7.869739E+001,  5.875720E+000, -3.310277E+000,  3.001438E-001
 -1.048640E+002,  1.134176E+002,  0.000000E+000,  7.869739E+001, -5.875720E+000,  3.310277E+000,  3.001438E-001
  6.201414E+001, -1.007321E+002,  0.000000E+000,  6.026357E+001, -1.807920E+000, -1.311098E+001,  3.003281E-001
 -6.201414E+001,  1.007321E+002,  0.000000E+000, -6.026357E+001,  1.807920E+000,  1.311098E+001,  3.003281E-001
  1.160590E+002, -8.937999E+001,  0.000000E+000, -8.192166E+001,  4.996307E+000, -2.599682E+000,  3.003114E-001
 -1.160590E+002,  8.937999E+001,  0.000000E+000,  8.192166E+001, -4.996307E+000,  2.599682E+000,  3.003114E-001
  7.250450E+001, -7.705695E+001,  0.000000E+000,  6.469225E+001, -1.856553E+000, -1.246622E+001,  3.000003E-001
 -7.250450E+001,  7.705695E+001,  0.000000E+000, -6.469225E+001,  1.856553E+000,  1.246622E+001,  3.000003E-001
  1.277423E+002, -6.459357E+001,  0.000000E+000, -8.508713E+001,  3.684816E+000, -2.293219E+000,  3.001865E-001
 -1.277423E+002,  6.459357E+001,  0.000000E+000,  8.508713E+001, -3.684816E+000,  2.293219E+000,  3.001865E-001
  8.376545E+001, -5.175857E+001,  0.000000E+000,  6.939685E+001, -1.891838E+000, -1.180183E+001,  3.002556E-001
 -8.376545E+001,  5.175857E+001,  0.000000E+000, -6.939685E+001,  1.891838E+000,  1.180183E+001,  3.002556E-001
  1.402763E+002, -4.131163E+001,  0.000000E+000, -8.759786E+001,  1.107717E+000, -3.578942E+000,  3.000389E-001
 -1.402763E+002,  4.131163E+001,  0.000000E+000,  8.759786E+001, -1.107717E+000,  3.578942E+000,  3.000389E-001
  9.570716E+001, -2.469834E+001,  0.000000E+000,  7.439985E+001, -2.022350E+000, -1.090394E+001,  3.001436E-001
 -9.570716E+001,  2.469834E+001,  0.000000E+000, -7.439985E+001,  2.022350E+000,  1.090394E+001,  3.001436E-001
  1.531883E+002, -1.754754E+001,  0.000000E+000, -8.987786E+001, -1.995529E+000, -5.469050E+000,  3.003967E-001
 -1.531883E+002,  1.754754E+001,  0.000000E+000,  8.987786E+001,  1.995529E+000,  5.469050E+000,  3.003967E-001
  1.083468E+002,  4.283963E+000,  0.000000E+000,  7.968223E+001, -2.192741E+000, -9.872923E+000,  3.000909E-001
 -1.083468E+002, -4.283963E+000,  0.000000E+000, -7.968223E+001,  2.192741E+000,  9.872923E+000,  3.000909E-001
  1.663614E+002,  7.092597E+000,  0.000000E+000, -9.196695E+001, -5.581777E+000, -7.790960E+000,  3.003018E-001
 -1.663614E+002, -7.092597E+000,  0.000000E+000,  9.196695E+001,  5.581777E+000,  7.790960E+000,  3.003018E-001
  1.217641E+002,  3.479098E+001,  0.000000E+000,  8.491495E+001, -1.906302E+000, -8.748901E+000,  3.000221E-001
 -1.217641E+002, -3.479098E+001,  0.000000E+000, -8.491495E+001,  1.906302E+000,  8.748901E+000,  3.000221E-001
  1.788009E+002,  3.236637E+001,  0.000000E+000, -9.377922E+001, -9.696303E+000, -1.018094E+001,  3.001441E-001
 -1.788009E+002, -3.236637E+001,  0.000000E+000,  9.377922E+001,  9.696303E+000,  1.018094E+001,  3.001441E-001
  1.282316E+002,  5.501140E+001,  0.000000E+000,  8.813835E+001, -1.211609E+000, -8.075404E+000,  3.004255E-001
 -1.282316E+002, -5.501140E+001,  0.000000E+000, -8.813835E+001,  1.211609E+000,  8.075404E+000,  3.004255E-001
  1.862163E+002,  5.767239E+001,  0.000000E+000, -9.510267E+001, -1.379249E+001, -1.151533E+001,  3.000150E-001
 -1.862163E+002, -5.767239E+001,  0.000000E+000,  9.510267E+001,  1.379249E+001,  1.151533E+001,  3.000150E-001
  1.267448E+002,  6.133504E+001,  0.000000E+000,  8.896015E+001, -1.379987E+000, -7.136839E+000,  3.004825E-001
 -1.267448E+002, -6.133504E+001,  0.000000E+000, -8.896015E+001,  1.379987E+000,  7.136839E+000,  3.004825E-001
  1.876159E+002,  8.275689E+001,  0.000000E+000, -9.541939E+001, -1.833391E+001, -1.080777E+001,  3.005421E-001
 -1.876159E+002, -8.275689E+001,  0.000000E+000,  9.541939E+001,  1.833391E+001,  1.080777E+001,  3.005421E-001
  1.236845E+002,  6.770533E+001,  0.000000E+000,  8.958709E+001, -1.561524E+000, -5.026054E+000,  3.003356E-001
 -1.236845E+002, -6.770533E+001,  0.000000E+000, -8.958709E+001,  1.561524E+000,  5.026054E+000,  3.003356E-001
  1.881142E+002,  1.074465E+002,  0.000000E+000, -9.543591E+001, -2.254987E+001, -9.868144E+000,  3.000210E-001
 -1.881142E+002, -1.074465E+002,  0.000000E+000,  9.543591E+001,  2.254987E+001,  9.868144E+000,  3.000210E-001
  1.197408E+002,  7.410293E+001,  0.000000E+000,  8.999802E+001, -1.823194E+000, -2.482146E+000,  3.000257E-001
 -1.197408E+002, -7.410293E+001,  0.000000E+000, -8.999802E+001,  1.823194E+000,  2.482146E+000,  3.000257E-001
  1.882069E+002,  1.324737E+002,  0.000000E+000, -9.446767E+001, -2.506374E+001, -8.797904E+000,  3.001463E-001
 -1.882069E+002, -1.324737E+002,  0.000000E+000,  9.446767E+001,  2.506374E+001,  8.797904E+000,  3.001463E-001
  1.156685E+002,  7.993061E+001,  0.000000E+000,  9.016749E+001, -2.162488E+000, -2.826576E-001,  3.003375E-001
 -1.156685E+002, -7.993061E+001,  0.000000E+000, -9.016749E+001,  2.162488E+000,  2.826576E-001,  3.003375E-001
  1.884710E+002,  1.569147E+002,  0.000000E+000, -9.222135E+001, -2.557227E+001, -7.261670E+000,  3.000436E-001
 -1.884710E+002, -1.569147E+002,  0.000000E+000,  9.222135E+001,  2.557227E+001,  7.261670E+000,  3.000436E-001
  1.113167E+002,  8.548821E+001,  0.000000E+000,  9.026471E+001, -2.485193E+000,  1.735162E+000,  3.003279E-001
 -1.113167E+002, -8.548821E+001,  0.000000E+000, -9.026471E+001,  2.485193E+000, -1.735162E+000,  3.003279E-001
  1.894744E+002,  1.793728E+002,  0.000000E+000, -8.902533E+001, -2.469250E+001, -4.920829E+000,  3.001840E-001
 -1.894744E+002, -1.793728E+002,  0.000000E+000,  8.902533E+001,  2.469250E+001,  4.920829E+000,  3.001840E-001
  1.064365E+002,  9.096831E+001,  0.000000E+000,  9.024572E+001, -2.787926E+000,  3.912332E+000,  3.000235E-001
 -1.064365E+002, -9.096831E+001,  0.000000E+000, -9.024572E+001,  2.787926E+000, -3.912332E+000,  3.000235E-001
  1.907490E+002,  1.997707E+002,  0.000000E+000, -8.545249E+001, -2.320875E+001, -2.240890E+000,  3.005272E-001
 -1.907490E+002, -1.997707E+002,  0.000000E+000,  8.545249E+001,  2.320875E+001,  2.240890E+000,  3.005272E-001
  1.017210E+002,  9.680048E+001,  0.000000E+000,  8.966597E+001, -2.986962E+000,  5.935777E+000,  3.001149E-001
 -1.017210E+002, -9.680048E+001,  0.000000E+000, -8.966597E+001,  2.986962E+000, -5.935777E+000,  3.001149E-001
  1.920778E+002,  2.182430E+002,  0.000000E+000, -8.193207E+001, -2.176416E+001,  3.912502E-001,  3.004426E-001
 -1.920778E+002, -2.182430E+002,  0.000000E+000,  8.193207E+001,  2.176416E+001, -3.912502E-001,  3.004426E-001
  9.688154E+001,  1.054574E+002,  0.000000E+000,  8.617206E+001, -2.962543E+000,  6.896610E+000,  3.002522E-001
 -9.688154E+001, -1.054574E+002,  0.000000E+000, -8.617206E+001,  2.962543E+000, -6.896610E+000,  3.002522E-001
  1.923976E+002,  2.297491E+002,  0.000000E+000, -7.916845E+001, -2.061843E+001,  1.933231E+000,  3.005353E-001
 -1.923976E+002, -2.297491E+002,  0.000000E+000,  7.916845E+001,  2.061843E+001, -1.933231E+000,  3.005353E-001
  9.109535E+001,  1.159458E+002,  0.000000E+000,  8.026199E+001, -2.726981E+000,  6.577258E+000,  3.001235E-001
 -9.109535E+001, -1.159458E+002,  0.000000E+000, -8.026199E+001,  2.726981E+000, -6.577258E+000,  3.001235E-001
  1.905490E+002,  2.329542E+002,  0.000000E+000, -7.766184E+001, -1.984866E+001,  2.247096E+000,  3.000785E-001
 -1.905490E+002, -2.329542E+002,  0.000000E+000,  7.766184E+001,  1.984866E+001, -2.247096E+000,  3.000785E-001
  1.907422E+002,  2.350058E+002,  0.000000E+000, -7.600231E+001, -1.950706E+001,  2.486464E+000,  3.000665E-001
 -1.907422E+002, -2.350058E+002,  0.000000E+000,  7.600231E+001,  1.950706E+001, -2.486464E+000,  3.000665E-001
  1.902962E+002,  2.368255E+002,  0.000000E+000, -7.406841E+001, -1.900470E+001,  2.791202E+000,  3.000174E-001
 -1.902962E+002, -2.368255E+002,  0.000000E+000,  7.406841E+001,  1.900470E+001, -2.791202E+000,  3.000174E-001
  1.896582E+002,  2.387070E+002,  0.000000E+000, -7.192661E+001, -1.843867E+001,  3.126137E+000,  3.004525E-001
 -1.896582E+002, -2.387070E+002,  0.000000E+000,  7.192661E+001,  1.843867E+001, -3.126137E+000,  3.004525E-001
  1.887677E+002,  2.406064E+002,  0.000000E+000, -6.939779E+001, -1.780941E+001,  3.408650E+000,  3.004445E-001
 -1.887677E+002, -2.406064E+002,  0.000000E+000,  6.939779E+001,  1.780941E+001, -3.408650E+000,  3.004445E-001
  1.873996E+002,  2.424395E+002,  0.000000E+000, -6.642949E+001, -1.697629E+001,  3.731595E+000,  3.000723E-001
 -1.873996E+002, -2.424395E+002,  0.000000E+000,  6.642949E+001,  1.697629E+001, -3.731595E+000,  3.000723E-001
  1.862620E+002,  2.437599E+002,  0.000000E+000, -6.269027E+001, -1.546419E+001,  4.564879E+000,  3.001902E-001
 -1.862620E+002, -2.437599E+002,  0.000000E+000,  6.269027E+001,  1.546419E+001, -4.564879E+000,  3.001902E-001
  1.850514E+002,  2.442813E+002,  0.000000E+000, -5.831125E+001, -1.338461E+001,  5.740954E+000,  3.002157E-001
 -1.850514E+002, -2.442813E+002,  0.000000E+000,  5.831125E+001,  1.338461E+001, -5.740954E+000,  3.002157E-001
  1.832272E+002,  2.432857E+002,  0.000000E+000, -5.333706E+001, -1.101216E+001,  7.091546E+000,  3.001277E-001
 -1.832272E+002, -2.432857E+002,  0.000000E+000,  5.333706E+001,  1.101216E+001, -7.091546E+000,  3.001277E-001
  1.783643E+002,  2.372239E+002,  0.000000E+000, -4.405473E+001, -9.017706E+000,  8.429345E+000,  3.003082E-001
 -1.783643E+002, -2.372239E+002,  0.000000E+000,  4.405473E+001,  9.017706E+000, -8.429345E+000,  3.003082E-001
  1.676463E+002,  2.242290E+002,  0.000000E+000, -2.860001E+001, -8.361238E+000,  8.244570E+000,  3.002389E-001
 -1.676463E+002, -2.242290E+002,  0.000000E+000,  2.860001E+001,  8.361238E+000, -8.244570E+000,  3.002389E-001
  1.569947E+002,  2.114720E+002,  0.000000E+000, -1.400490E+001, -7.587508E+000,  8.051102E+000,  3.002557E-001
 -1.569947E+002, -2.114720E+002,  0.000000E+000,  1.400490E+001,  7.587508E+000, -8.051102E+000,  3.002557E-001
  1.462565E+002,  1.987251E+002,  0.000000E+000, -2.303969E-001, -6.893465E+000,  7.843200E+000,  3.002412E-001
 -1.462565E+002, -1.987251E+002,  0.000000E+000,  2.303969E-001,  6.893465E+000, -7.843200E+000,  3.002412E-001
  1.358920E+002,  1.863928E+002,  0.000000E+000,  1.278163E+001, -6.271347E+000,  7.633178E+000,  3.003938E-001
 -1.358920E+002, -1.863928E+002,  0.000000E+000, -1.278163E+001,  6.271347E+000, -7.633178E+000,  3.003938E-001
  1.261381E+002,  1.747197E+002,  0.000000E+000,  2.492322E+001, -5.628052E+000,  7.407306E+000,  3.002200E-001
 -1.261381E+002, -1.747197E+002,  0.000000E+000, -2.492322E+001,  5.628052E+000, -7.407306E+000,  3.002200E-001
  1.169911E+002,  1.636471E+002,  0.000000E+000,  3.626966E+001, -5.016955E+000,  7.171768E+000,  3.000239E-001
 -1.169911E+002, -1.636471E+002,  0.000000E+000, -3.626966E+001,  5.016955E+000, -7.171768E+000,  3.000239E-001
  1.085593E+002,  1.532309E+002,  0.000000E+000,  4.679359E+001, -4.479077E+000,  6.972532E+000,  3.003790E-001
 -1.085593E+002, -1.532309E+002,  0.000000E+000, -4.679359E+001,  4.479077E+000, -6.972532E+000,  3.003790E-001
  1.007291E+002,  1.434557E+002,  0.000000E+000,  5.655866E+001, -3.994254E+000,  6.809288E+000,  3.001326E-001
 -1.007291E+002, -1.434557E+002,  0.000000E+000, -5.655866E+001,  3.994254E+000, -6.809288E+000,  3.001326E-001
  9.339053E+001,  1.343326E+002,  0.000000E+000,  6.561197E+001, -3.542812E+000,  6.684702E+000,  3.002984E-001
 -9.339053E+001, -1.343326E+002,  0.000000E+000, -6.561197E+001,  3.542812E+000, -6.684702E+000,  3.002984E-001
  8.656630E+001,  1.258263E+002,  0.000000E+000,  7.396885E+001, -3.058137E+000,  6.542241E+000,  3.000926E-001
 -8.656630E+001, -1.258263E+002,  0.000000E+000, -7.396885E+001,  3.058137E+000, -6.542241E+000,  3.000926E-001
  8.801576E+001, -1.510528E+002,  0.000000E+000, -7.232901E+001,  6.173796E+000, -7.016615E+000,  3.000449E-001
 -8.801576E+001,  1.510528E+002,  0.000000E+000,  7.232901E+001, -6.173796E+000,  7.016615E+000,  3.000449E-001
  8.816365E+001, -1.539038E+002,  0.000000E+000, -7.110613E+001,  5.369904E+000, -8.440278E+000,  3.004258E-001
 -8.816365E+001,  1.539038E+002,  0.000000E+000,  7.110613E+001, -5.369904E+000,  8.440278E+000,  3.004258E-001
  8.853048E+001, -1.567783E+002,  0.000000E+000, -6.963617E+001,  4.458066E+000, -9.972612E+000,  3.005544E-001
 -8.853048E+001,  1.567783E+002,  0.000000E+000,  6.963617E+001, -4.458066E+000,  9.972612E+000,  3.005544E-001
  8.878682E+001, -1.602914E+002,  0.000000E+000, -6.703072E+001,  3.504758E+000, -1.160863E+001,  3.005709E-001
 -8.878682E+001,  1.602914E+002,  0.000000E+000,  6.703072E+001, -3.504758E+000,  1.160863E+001,  3.005709E-001
  8.859605E+001, -1.644010E+002,  0.000000E+000, -6.317662E+001,  2.890832E+000, -1.341334E+001,  3.005150E-001
 -8.859605E+001,  1.644010E+002,  0.000000E+000,  6.317662E+001, -2.890832E+000,  1.341334E+001,  3.005150E-001
  8.766746E+001, -1.702301E+002,  0.000000E+000, -5.626979E+001,  3.394205E+000, -1.521040E+001,  3.006336E-001
 -8.766746E+001,  1.702301E+002,  0.000000E+000,  5.626979E+001, -3.394205E+000,  1.521040E+001,  3.006336E-001
  8.855972E+001, -1.754391E+002,  0.000000E+000, -4.497711E+001,  5.310367E+000, -1.680805E+001,  3.004176E-001
 -8.855972E+001,  1.754391E+002,  0.000000E+000,  4.497711E+001, -5.310367E+000,  1.680805E+001,  3.004176E-001
  9.049019E+001, -1.799485E+002,  0.000000E+000, -3.235346E+001,  7.395605E+000, -1.829435E+001,  3.000136E-001
 -9.049019E+001,  1.799485E+002,  0.000000E+000,  3.235346E+001, -7.395605E+000,  1.829435E+001,  3.000136E-001
  9.254332E+001, -1.843337E+002,  0.000000E+000, -1.917813E+001,  9.548858E+000, -1.985339E+001,  3.003127E-001
 -9.254332E+001,  1.843337E+002,  0.000000E+000,  1.917813E+001, -9.548858E+000,  1.985339E+001,  3.003127E-001
  9.428190E+001, -1.846478E+002,  0.000000E+000, -1.028651E+001,  1.202184E+001, -1.838420E+001,  3.001904E-001
 -9.428190E+001,  1.846478E+002,  0.000000E+000,  1.028651E+001, -1.202184E+001,  1.838420E+001,  3.001904E-001
  9.488623E+001, -1.819043E+002,  0.000000E+000, -4.067204E+000,  1.425892E+001, -1.481248E+001,  3.002564E-001
 -9.488623E+001,  1.819043E+002,  0.000000E+000,  4.067204E+000, -1.425892E+001,  1.481248E+001,  3.002564E-001
  9.069947E+001, -1.786659E+002,  0.000000E+000,  5.652986E+000,  1.384012E+001, -1.137697E+001,  3.004229E-001
 -9.069947E+001,  1.786659E+002,  0.000000E+000, -5.652986E+000, -1.384012E+001,  1.137697E+001,  3.004229E-001
  8.576650E+001, -1.755291E+002,  0.000000E+000,  1.481771E+001,  1.236037E+001, -8.813124E+000,  3.005108E-001
 -8.576650E+001,  1.755291E+002,  0.000000E+000, -1.481771E+001, -1.236037E+001,  8.813124E+000,  3.005108E-001
  8.169441E+001, -1.735985E+002,  0.000000E+000,  2.062847E+001,  1.008006E+001, -8.351225E+000,  3.003179E-001
 -8.169441E+001,  1.735985E+002,  0.000000E+000, -2.062847E+001, -1.008006E+001,  8.351225E+000,  3.003179E-001
  7.798797E+001, -1.719122E+002,  0.000000E+000,  2.500517E+001,  7.390237E+000, -8.875332E+000,  3.000175E-001
 -7.798797E+001,  1.719122E+002,  0.000000E+000, -2.500517E+001, -7.390237E+000,  8.875332E+000,  3.000175E-001
  7.404960E+001, -1.695342E+002,  0.000000E+000,  2.919680E+001,  4.616050E+000, -9.719101E+000,  3.003353E-001
 -7.404960E+001,  1.695342E+002,  0.000000E+000, -2.919680E+001, -4.616050E+000,  9.719101E+000,  3.003353E-001
  7.016668E+001, -1.670352E+002,  0.000000E+000,  3.277322E+001,  2.030384E+000, -1.070327E+001,  3.000416E-001
 -7.016668E+001,  1.670352E+002,  0.000000E+000, -3.277322E+001, -2.030384E+000,  1.070327E+001,  3.000416E-001
  6.605828E+001, -1.638468E+002,  0.000000E+000,  3.632185E+001, -1.838718E-001, -1.149510E+001,  3.003708E-001
 -6.605828E+001,  1.638468E+002,  0.000000E+000, -3.632185E+001,  1.838718E-001,  1.149510E+001,  3.003708E-001
  6.114287E+001, -1.580483E+002,  0.000000E+000,  4.063685E+001, -1.432008E+000, -1.210966E+001,  3.003945E-001
 -6.114287E+001,  1.580483E+002,  0.000000E+000, -4.063685E+001,  1.432008E+000,  1.210966E+001,  3.003945E-001
  5.569032E+001, -1.494286E+002,  0.000000E+000,  4.570683E+001, -1.763288E+000, -1.273286E+001,  3.003402E-001
 -5.569032E+001,  1.494286E+002,  0.000000E+000, -4.570683E+001,  1.763288E+000,  1.273286E+001,  3.003402E-001
  9.959616E+001, -1.375382E+002,  0.000000E+000, -7.323011E+001,  5.363450E+000, -5.048871E+000,  3.003446E-001
 -9.959616E+001,  1.375382E+002,  0.000000E+000,  7.323011E+001, -5.363450E+000,  5.048871E+000,  3.003446E-001
  6.506959E+001, -1.308806E+002,  0.000000E+000,  4.895701E+001, -1.927778E+000, -1.218560E+001,  3.002789E-001
 -6.506959E+001,  1.308806E+002,  0.000000E+000, -4.895701E+001,  1.927778E+000,  1.218560E+001,  3.002789E-001
  1.118821E+002, -1.212297E+002,  0.000000E+000, -7.462204E+001,  4.428851E+000, -3.179120E+000,  3.003971E-001
 -1.118821E+002,  1.212297E+002,  0.000000E+000,  7.462204E+001, -4.428851E+000,  3.179120E+000,  3.003971E-001
  7.503537E+001, -1.109617E+002,  0.000000E+000,  5.243825E+001, -2.087303E+000, -1.161917E+001,  3.000541E-001
 -7.503537E+001,  1.109617E+002,  0.000000E+000, -5.243825E+001,  2.087303E+000,  1.161917E+001,  3.000541E-001
  1.240254E+002, -1.017708E+002,  0.000000E+000, -7.676493E+001,  3.403237E+000, -1.689061E+000,  3.001669E-001
 -1.240254E+002,  1.017708E+002,  0.000000E+000,  7.676493E+001, -3.403237E+000,  1.689061E+000,  3.001669E-001
  8.558468E+001, -8.963684E+001,  0.000000E+000,  5.613926E+001, -2.264596E+000, -1.104624E+001,  3.002144E-001
 -8.558468E+001,  8.963684E+001,  0.000000E+000, -5.613926E+001,  2.264596E+000,  1.104624E+001,  3.002144E-001
  1.355877E+002, -7.885695E+001,  0.000000E+000, -7.968798E+001,  2.436766E+000, -8.172740E-001,  3.001571E-001
 -1.355877E+002,  7.885695E+001,  0.000000E+000,  7.968798E+001, -2.436766E+000,  8.172740E-001,  3.001571E-001
  9.675802E+001, -6.658259E+001,  0.000000E+000,  6.018653E+001, -2.368755E+000, -1.041029E+001,  3.001815E-001
 -9.675802E+001,  6.658259E+001,  0.000000E+000, -6.018653E+001,  2.368755E+000,  1.041029E+001,  3.001815E-001
  1.474701E+002, -5.456874E+001,  0.000000E+000, -8.274000E+001,  1.257479E+000, -2.699767E-001,  3.001806E-001
 -1.474701E+002,  5.456874E+001,  0.000000E+000,  8.274000E+001, -1.257479E+000,  2.699767E-001,  3.001806E-001
  1.083241E+002, -4.189549E+001,  0.000000E+000,  6.456331E+001, -2.439189E+000, -9.668537E+000,  3.001276E-001
 -1.083241E+002,  4.189549E+001,  0.000000E+000, -6.456331E+001,  2.439189E+000,  9.668537E+000,  3.001276E-001
  1.603018E+002, -3.143162E+001,  0.000000E+000, -8.524279E+001, -1.027306E+000, -1.045825E+000,  3.002359E-001
 -1.603018E+002,  3.143162E+001,  0.000000E+000,  8.524279E+001,  1.027306E+000,  1.045825E+000,  3.002359E-001
  1.205984E+002, -1.551626E+001,  0.000000E+000,  6.921787E+001, -2.660207E+000, -8.726900E+000,  3.003572E-001
 -1.205984E+002,  1.551626E+001,  0.000000E+000, -6.921787E+001,  2.660207E+000,  8.726900E+000,  3.003572E-001
  1.734069E+002, -8.518372E+000,  0.000000E+000, -8.747494E+001, -4.060369E+000, -2.702138E+000,  3.000240E-001
 -1.734069E+002,  8.518372E+000,  0.000000E+000,  8.747494E+001,  4.060369E+000,  2.702138E+000,  3.000240E-001
  1.328952E+002,  1.218349E+001,  0.000000E+000,  7.417433E+001, -2.691771E+000, -7.735699E+000,  3.000131E-001
 -1.328952E+002, -1.218349E+001,  0.000000E+000, -7.417433E+001,  2.691771E+000,  7.735699E+000,  3.000131E-001
  1.863209E+002,  1.520109E+001,  0.000000E+000, -8.964398E+001, -7.494669E+000, -4.673185E+000,  3.001735E-001
 -1.863209E+002, -1.520109E+001,  0.000000E+000,  8.964398E+001,  7.494669E+000,  4.673185E+000,  3.001735E-001
  1.374704E+002,  3.531279E+001,  0.000000E+000,  7.965710E+001, -1.009703E+000, -7.136831E+000,  3.001576E-001
 -1.374704E+002, -3.531279E+001,  0.000000E+000, -7.965710E+001,  1.009703E+000,  7.136831E+000,  3.001576E-001
  1.967930E+002,  3.775386E+001,  0.000000E+000, -9.159624E+001, -1.096651E+001, -6.858955E+000,  3.005221E-001
 -1.967930E+002, -3.775386E+001,  0.000000E+000,  9.159624E+001,  1.096651E+001,  6.858955E+000,  3.005221E-001
  1.361897E+002,  5.297845E+001,  0.000000E+000,  8.462861E+001,  1.277545E+000, -6.694706E+000,  3.003762E-001
 -1.361897E+002, -5.297845E+001,  0.000000E+000, -8.462861E+001, -1.277545E+000,  6.694706E+000,  3.003762E-001
  1.972505E+002,  5.590429E+001,  0.000000E+000, -9.286723E+001, -1.300639E+001, -7.890687E+000,  3.002049E-001
 -1.972505E+002, -5.590429E+001,  0.000000E+000,  9.286723E+001,  1.300639E+001,  7.890687E+000,  3.002049E-001
  1.352446E+002,  6.090839E+001,  0.000000E+000,  8.612316E+001,  1.738445E+000, -6.573601E+000,  3.003937E-001
 -1.352446E+002, -6.090839E+001,  0.000000E+000, -8.612316E+001, -1.738445E+000,  6.573601E+000,  3.003937E-001
  1.974610E+002,  7.932971E+001,  0.000000E+000, -9.315532E+001, -1.719089E+001, -7.146778E+000,  3.001405E-001
 -1.974610E+002, -7.932971E+001,  0.000000E+000,  9.315532E+001,  1.719089E+001,  7.146778E+000,  3.001405E-001
  1.339186E+002,  6.640672E+001,  0.000000E+000,  8.671951E+001,  1.476594E+000, -6.061686E+000,  3.004882E-001
 -1.339186E+002, -6.640672E+001,  0.000000E+000, -8.671951E+001, -1.476594E+000,  6.061686E+000,  3.004882E-001
  1.972888E+002,  1.025320E+002,  0.000000E+000, -9.308914E+001, -2.094105E+001, -6.285072E+000,  3.003474E-001
 -1.972888E+002, -1.025320E+002,  0.000000E+000,  9.308914E+001,  2.094105E+001,  6.285072E+000,  3.003474E-001
  1.312603E+002,  7.226569E+001,  0.000000E+000,  8.721549E+001,  1.094063E+000, -4.617442E+000,  3.000208E-001
 -1.312603E+002, -7.226569E+001,  0.000000E+000, -8.721549E+001, -1.094063E+000,  4.617442E+000,  3.000208E-001
  1.966992E+002,  1.264636E+002,  0.000000E+000, -9.209477E+001, -2.306593E+001, -5.444279E+000,  3.005745E-001
 -1.966992E+002, -1.264636E+002,  0.000000E+000,  9.209477E+001,  2.306593E+001,  5.444279E+000,  3.005745E-001
  1.272742E+002,  7.795045E+001,  0.000000E+000,  8.756270E+001,  6.667780E-001, -2.418163E+000,  3.000802E-001
 -1.272742E+002, -7.795045E+001,  0.000000E+000, -8.756270E+001, -6.667780E-001,  2.418163E+000,  3.000802E-001
  1.959077E+002,  1.501608E+002,  0.000000E+000, -9.033776E+001, -2.390064E+001, -4.626140E+000,  3.000873E-001
 -1.959077E+002, -1.501608E+002,  0.000000E+000,  9.033776E+001,  2.390064E+001,  4.626140E+000,  3.000873E-001
  1.230555E+002,  8.315950E+001,  0.000000E+000,  8.775997E+001,  2.368281E-001, -3.602689E-001,  3.001454E-001
 -1.230555E+002, -8.315950E+001,  0.000000E+000, -8.775997E+001, -2.368281E-001,  3.602689E-001,  3.001454E-001
  1.950701E+002,  1.729556E+002,  0.000000E+000, -8.813429E+001, -2.410681E+001, -3.705261E+000,  3.004280E-001
 -1.950701E+002, -1.729556E+002,  0.000000E+000,  8.813429E+001,  2.410681E+001,  3.705261E+000,  3.004280E-001
  1.189249E+002,  8.840841E+001,  0.000000E+000,  8.770583E+001, -1.741506E-001,  1.466957E+000,  3.004845E-001
 -1.189249E+002, -8.840841E+001,  0.000000E+000, -8.770583E+001,  1.741506E-001, -1.466957E+000,  3.004845E-001
  1.945802E+002,  1.940376E+002,  0.000000E+000, -8.547072E+001, -2.369395E+001, -2.444335E+000,  3.000614E-001
 -1.945802E+002, -1.940376E+002,  0.000000E+000,  8.547072E+001,  2.369395E+001,  2.444335E+000,  3.000614E-001
  1.157588E+002,  9.552826E+001,  0.000000E+000,  8.592302E+001, -6.074673E-001,  3.572306E+000,  3.004433E-001
 -1.157588E+002, -9.552826E+001,  0.000000E+000, -8.592302E+001,  6.074673E-001, -3.572306E+000,  3.004433E-001
  1.952095E+002,  2.128603E+002,  0.000000E+000, -8.211409E+001, -2.265462E+001, -3.392677E-001,  3.002129E-001
 -1.952095E+002, -2.128603E+002,  0.000000E+000,  8.211409E+001,  2.265462E+001,  3.392677E-001,  3.002129E-001
  1.137068E+002,  1.042988E+002,  0.000000E+000,  8.217873E+001, -1.708115E+000,  5.761405E+000,  3.000045E-001
 -1.137068E+002, -1.042988E+002,  0.000000E+000, -8.217873E+001,  1.708115E+000, -5.761405E+000,  3.000045E-001
  1.959236E+002,  2.280709E+002,  0.000000E+000, -7.894031E+001, -2.143052E+001,  1.737472E+000,  3.002220E-001
 -1.959236E+002, -2.280709E+002,  0.000000E+000,  7.894031E+001,  2.143052E+001, -1.737472E+000,  3.002220E-001
  1.102926E+002,  1.147054E+002,  0.000000E+000,  7.640517E+001, -2.838421E+000,  6.822972E+000,  3.002813E-001
 -1.102926E+002, -1.147054E+002,  0.000000E+000, -7.640517E+001,  2.838421E+000, -6.822972E+000,  3.002813E-001
  1.952720E+002,  2.325020E+002,  0.000000E+000, -7.753888E+001, -2.070488E+001,  2.002592E+000,  3.002828E-001
 -1.952720E+002, -2.325020E+002,  0.000000E+000,  7.753888E+001,  2.070488E+001, -2.002592E+000,  3.002828E-001
  1.965284E+002,  2.342477E+002,  0.000000E+000, -7.601904E+001, -2.050099E+001,  1.938553E+000,  3.006255E-001
 -1.965284E+002, -2.342477E+002,  0.000000E+000,  7.601904E+001,  2.050099E+001, -1.938553E+000,  3.006255E-001
  1.978743E+002,  2.357314E+002,  0.000000E+000, -7.436605E+001, -2.026630E+001,  1.819635E+000,  3.003815E-001
 -1.978743E+002, -2.357314E+002,  0.000000E+000,  7.436605E+001,  2.026630E+001, -1.819635E+000,  3.003815E-001
  1.995168E+002,  2.371637E+002,  0.000000E+000, -7.241221E+001, -1.987733E+001,  1.769992E+000,  3.001357E-001
 -1.995168E+002, -2.371637E+002,  0.000000E+000,  7.241221E+001,  1.987733E+001, -1.769992E+000,  3.001357E-001
  2.015981E+002,  2.382280E+002,  0.000000E+000, -6.992095E+001, -1.901567E+001,  2.140382E+000,  3.002366E-001
 -2.015981E+002, -2.382280E+002,  0.000000E+000,  6.992095E+001,  1.901567E+001, -2.140382E+000,  3.002366E-001
  2.037303E+002,  2.388587E+002,  0.000000E+000, -6.676370E+001, -1.760976E+001,  3.027235E+000,  3.005033E-001
 -2.037303E+002, -2.388587E+002,  0.000000E+000,  6.676370E+001,  1.760976E+001, -3.027235E+000,  3.005033E-001
  2.052268E+002,  2.390831E+002,  0.000000E+000, -6.293309E+001, -1.578554E+001,  4.217814E+000,  3.005035E-001
 -2.052268E+002, -2.390831E+002,  0.000000E+000,  6.293309E+001,  1.578554E+001, -4.217814E+000,  3.005035E-001
  2.056150E+002,  2.382960E+002,  0.000000E+000, -5.843073E+001, -1.347050E+001,  5.645306E+000,  3.000189E-001
 -2.056150E+002, -2.382960E+002,  0.000000E+000,  5.843073E+001,  1.347050E+001, -5.645306E+000,  3.000189E-001
  2.048307E+002,  2.359418E+002,  0.000000E+000, -5.303300E+001, -1.094147E+001,  7.425409E+000,  3.001387E-001
 -2.048307E+002, -2.359418E+002,  0.000000E+000,  5.303300E+001,  1.094147E+001, -7.425409E+000,  3.001387E-001
  2.008014E+002,  2.301700E+002,  0.000000E+000, -4.427422E+001, -8.956137E+000,  8.744241E+000,  3.000829E-001
 -2.008014E+002, -2.301700E+002,  0.000000E+000,  4.427422E+001,  8.956137E+000, -8.744241E+000,  3.000829E-001
  1.901853E+002,  2.179401E+002,  0.000000E+000, -2.958408E+001, -8.327522E+000,  8.498970E+000,  3.002787E-001
 -1.901853E+002, -2.179401E+002,  0.000000E+000,  2.958408E+001,  8.327522E+000, -8.498970E+000,  3.002787E-001
  1.793393E+002,  2.057932E+002,  0.000000E+000, -1.557109E+001, -7.564226E+000,  8.250768E+000,  3.001588E-001
 -1.793393E+002, -2.057932E+002,  0.000000E+000,  1.557109E+001,  7.564226E+000, -8.250768E+000,  3.001588E-001
  1.684125E+002,  1.937674E+002,  0.000000E+000, -2.340815E+000, -6.908223E+000,  8.037620E+000,  3.000781E-001
 -1.684125E+002, -1.937674E+002,  0.000000E+000,  2.340815E+000,  6.908223E+000, -8.037620E+000,  3.000781E-001
  1.576848E+002,  1.820416E+002,  0.000000E+000,  1.026540E+001, -6.311009E+000,  7.814547E+000,  3.003069E-001
 -1.576848E+002, -1.820416E+002,  0.000000E+000, -1.026540E+001,  6.311009E+000, -7.814547E+000,  3.003069E-001
  1.474583E+002,  1.709340E+002,  0.000000E+000,  2.208308E+001, -5.691751E+000,  7.585954E+000,  3.000228E-001
 -1.474583E+002, -1.709340E+002,  0.000000E+000, -2.208308E+001,  5.691751E+000, -7.585954E+000,  3.000228E-001
  1.378259E+002,  1.604360E+002,  0.000000E+000,  3.318628E+001, -5.101188E+000,  7.358871E+000,  3.001134E-001
 -1.378259E+002, -1.604360E+002,  0.000000E+000, -3.318628E+001,  5.101188E+000, -7.358871E+000,  3.001134E-001
  1.287704E+002,  1.505757E+002,  0.000000E+000,  4.355897E+001, -4.565418E+000,  7.171942E+000,  3.002932E-001
 -1.287704E+002, -1.505757E+002,  0.000000E+000, -4.355897E+001,  4.565418E+000, -7.171942E+000,  3.002932E-001
  1.202766E+002,  1.412993E+002,  0.000000E+000,  5.321032E+001, -4.108345E+000,  7.047224E+000,  3.004089E-001
 -1.202766E+002, -1.412993E+002,  0.000000E+000, -5.321032E+001,  4.108345E+000, -7.047224E+000,  3.004089E-001
  1.123679E+002,  1.325638E+002,  0.000000E+000,  6.218334E+001, -3.702142E+000,  6.958813E+000,  3.000647E-001
 -1.123679E+002, -1.325638E+002,  0.000000E+000, -6.218334E+001,  3.702142E+000, -6.958813E+000,  3.000647E-001
  1.050403E+002,  1.243405E+002,  0.000000E+000,  7.049909E+001, -3.254085E+000,  6.840758E+000,  3.002572E-001
 -1.050403E+002, -1.243405E+002,  0.000000E+000, -7.049909E+001,  3.254085E+000, -6.840758E+000,  3.002572E-001
  1.034353E+002, -1.373622E+002,  0.000000E+000, -7.185267E+001,  4.061184E+000, -6.263159E+000,  3.000972E-001
 -1.034353E+002,  1.373622E+002,  0.000000E+000,  7.185267E+001, -4.061184E+000,  6.263159E+000,  3.000972E-001
  1.037058E+002, -1.400650E+002,  0.000000E+000, -7.065695E+001,  3.247280E+000, -7.658971E+000,  3.004981E-001
 -1.037058E+002,  1.400650E+002,  0.000000E+000,  7.065695E+001, -3.247280E+000,  7.658971E+000,  3.004981E-001
  1.040659E+002, -1.430354E+002,  0.000000E+000, -6.899420E+001,  2.330227E+000, -9.194227E+000,  3.003817E-001
 -1.040659E+002,  1.430354E+002,  0.000000E+000,  6.899420E+001, -2.330227E+000,  9.194227E+000,  3.003817E-001
  1.044349E+002, -1.463065E+002,  0.000000E+000, -6.629323E+001,  1.444266E+000, -1.082595E+001,  3.005332E-001
 -1.044349E+002,  1.463065E+002,  0.000000E+000,  6.629323E+001, -1.444266E+000,  1.082595E+001,  3.005332E-001
  1.049790E+002, -1.497291E+002,  0.000000E+000, -6.197205E+001,  9.747177E-001, -1.243087E+001,  3.001941E-001
 -1.049790E+002,  1.497291E+002,  0.000000E+000,  6.197205E+001, -9.747177E-001,  1.243087E+001,  3.001941E-001
  1.063790E+002, -1.533868E+002,  0.000000E+000, -5.384854E+001,  1.742457E+000, -1.378198E+001,  3.006069E-001
 -1.063790E+002,  1.533868E+002,  0.000000E+000,  5.384854E+001, -1.742457E+000,  1.378198E+001,  3.006069E-001
  1.086364E+002, -1.570031E+002,  0.000000E+000, -4.248810E+001,  3.584892E+000, -1.512001E+001,  3.005552E-001
 -1.086364E+002,  1.570031E+002,  0.000000E+000,  4.248810E+001, -3.584892E+000,  1.512001E+001,  3.005552E-001
  1.111563E+002, -1.605451E+002,  0.000000E+000, -3.042419E+001,  5.506555E+000, -1.644403E+001,  3.001012E-001
 -1.111563E+002,  1.605451E+002,  0.000000E+000,  3.042419E+001, -5.506555E+000,  1.644403E+001,  3.001012E-001
  1.135115E+002, -1.640929E+002,  0.000000E+000, -1.798237E+001,  7.563191E+000, -1.782555E+001,  3.004781E-001
 -1.135115E+002,  1.640929E+002,  0.000000E+000,  1.798237E+001, -7.563191E+000,  1.782555E+001,  3.004781E-001
  1.152332E+002, -1.644884E+002,  0.000000E+000, -9.176154E+000,  9.760108E+000, -1.664521E+001,  3.003863E-001
 -1.152332E+002,  1.644884E+002,  0.000000E+000,  9.176154E+000, -9.760108E+000,  1.664521E+001,  3.003863E-001
  1.165978E+002, -1.618973E+002,  0.000000E+000, -3.938215E+000,  1.232120E+001, -1.313824E+001,  3.004266E-001
 -1.165978E+002,  1.618973E+002,  0.000000E+000,  3.938215E+000, -1.232120E+001,  1.313824E+001,  3.004266E-001
  1.142056E+002, -1.591690E+002,  0.000000E+000,  4.016321E+000,  1.302426E+001, -9.891317E+000,  3.004167E-001
 -1.142056E+002,  1.591690E+002,  0.000000E+000, -4.016321E+000, -1.302426E+001,  9.891317E+000,  3.004167E-001
  1.091309E+002, -1.566338E+002,  0.000000E+000,  1.286750E+001,  1.184143E+001, -7.303715E+000,  3.005212E-001
 -1.091309E+002,  1.566338E+002,  0.000000E+000, -1.286750E+001, -1.184143E+001,  7.303715E+000,  3.005212E-001
  1.046460E+002, -1.552258E+002,  0.000000E+000,  1.878990E+001,  9.788911E+000, -6.652844E+000,  3.005879E-001
 -1.046460E+002,  1.552258E+002,  0.000000E+000, -1.878990E+001, -9.788911E+000,  6.652844E+000,  3.005879E-001
  1.006066E+002, -1.542733E+002,  0.000000E+000,  2.306339E+001,  7.356345E+000, -7.105133E+000,  3.003932E-001
 -1.006066E+002,  1.542733E+002,  0.000000E+000, -2.306339E+001, -7.356345E+000,  7.105133E+000,  3.003932E-001
  9.627279E+001, -1.527844E+002,  0.000000E+000,  2.715179E+001,  4.726209E+000, -7.862082E+000,  3.001225E-001
 -9.627279E+001,  1.527844E+002,  0.000000E+000, -2.715179E+001, -4.726209E+000,  7.862082E+000,  3.001225E-001
  9.193055E+001, -1.509583E+002,  0.000000E+000,  3.076628E+001,  2.205977E+000, -8.796861E+000,  3.004642E-001
 -9.193055E+001,  1.509583E+002,  0.000000E+000, -3.076628E+001, -2.205977E+000,  8.796861E+000,  3.004642E-001
  8.751527E+001, -1.487461E+002,  0.000000E+000,  3.407725E+001, -4.254936E-002, -9.668863E+000,  3.003387E-001
 -8.751527E+001,  1.487461E+002,  0.000000E+000, -3.407725E+001,  4.254936E-002,  9.668863E+000,  3.003387E-001
  8.236227E+001, -1.447383E+002,  0.000000E+000,  3.791374E+001, -1.542512E+000, -1.030976E+001,  3.004470E-001
 -8.236227E+001,  1.447383E+002,  0.000000E+000, -3.791374E+001,  1.542512E+000,  1.030976E+001,  3.004470E-001
  7.641236E+001, -1.378491E+002,  0.000000E+000,  4.265668E+001, -2.078392E+000, -1.097316E+001,  3.002464E-001
 -7.641236E+001,  1.378491E+002,  0.000000E+000, -4.265668E+001,  2.078392E+000,  1.097316E+001,  3.002464E-001
  1.155843E+002, -1.235549E+002,  0.000000E+000, -7.261074E+001,  3.172602E+000, -4.249784E+000,  3.001605E-001
 -1.155843E+002,  1.235549E+002,  0.000000E+000,  7.261074E+001, -3.172602E+000,  4.249784E+000,  3.001605E-001
  8.624411E+001, -1.196744E+002,  0.000000E+000,  4.564220E+001, -2.294522E+000, -1.034696E+001,  3.001471E-001
 -8.624411E+001,  1.196744E+002,  0.000000E+000, -4.564220E+001,  2.294522E+000,  1.034696E+001,  3.001471E-001
  1.282901E+002, -1.081436E+002,  0.000000E+000, -7.363693E+001,  2.218145E+000, -2.234035E+000,  3.001284E-001
 -1.282901E+002,  1.081436E+002,  0.000000E+000,  7.363693E+001, -2.218145E+000,  2.234035E+000,  3.001284E-001
  9.660418E+001, -1.000721E+002,  0.000000E+000,  4.887442E+001, -2.493354E+000, -9.706952E+000,  3.001544E-001
 -9.660418E+001,  1.000721E+002,  0.000000E+000, -4.887442E+001,  2.493354E+000,  9.706952E+000,  3.001544E-001
  1.411975E+002, -9.027171E+001,  0.000000E+000, -7.520945E+001,  1.147169E+000, -4.276343E-001,  3.003980E-001
 -1.411975E+002,  9.027171E+001,  0.000000E+000,  7.520945E+001, -1.147169E+000,  4.276343E-001,  3.003980E-001
  1.075784E+002, -7.912092E+001,  0.000000E+000,  5.230052E+001, -2.678004E+000, -9.055503E+000,  3.000295E-001
 -1.075784E+002,  7.912092E+001,  0.000000E+000, -5.230052E+001,  2.678004E+000,  9.055503E+000,  3.000295E-001
  1.534943E+002, -6.900547E+001,  0.000000E+000, -7.764293E+001,  5.111769E-002,  8.059024E-001,  3.001336E-001
 -1.534943E+002,  6.900547E+001,  0.000000E+000,  7.764293E+001, -5.111769E-002, -8.059024E-001,  3.001336E-001
  1.190878E+002, -5.673794E+001,  0.000000E+000,  5.600704E+001, -2.836929E+000, -8.382111E+000,  3.001878E-001
 -1.190878E+002,  5.673794E+001,  0.000000E+000, -5.600704E+001,  2.836929E+000,  8.382111E+000,  3.001878E-001
  1.654877E+002, -4.540695E+001,  0.000000E+000, -8.053642E+001, -1.085240E+000,  1.530355E+000,  3.002843E-001
 -1.654877E+002,  4.540695E+001,  0.000000E+000,  8.053642E+001,  1.085240E+000, -1.530355E+000,  3.002843E-001
  1.310817E+002, -3.280731E+001,  0.000000E+000,  6.002304E+001, -2.991076E+000, -7.647964E+000,  3.002446E-001
 -1.310817E+002,  3.280731E+001,  0.000000E+000, -6.002304E+001,  2.991076E+000,  7.647964E+000,  3.002446E-001
  1.779875E+002, -2.246159E+001,  0.000000E+000, -8.308196E+001, -3.146191E+000,  1.218374E+000,  3.003531E-001
 -1.779875E+002,  2.246159E+001,  0.000000E+000,  8.308196E+001,  3.146191E+000, -1.218374E+000,  3.003531E-001
  1.419662E+002, -8.146862E+000,  0.000000E+000,  6.442168E+001, -2.824338E+000, -6.806493E+000,  3.002621E-001
 -1.419662E+002,  8.146862E+000,  0.000000E+000, -6.442168E+001,  2.824338E+000,  6.806493E+000,  3.002621E-001
  1.909237E+002, -5.196128E-001,  0.000000E+000, -8.523109E+001, -6.056773E+000, -1.150017E-001,  3.002807E-001
 -1.909237E+002,  5.196128E-001,  0.000000E+000,  8.523109E+001,  6.056773E+000,  1.150017E-001,  3.002807E-001
  1.453863E+002,  1.217010E+001,  0.000000E+000,  6.952026E+001, -1.160469E+000, -6.287030E+000,  3.001733E-001
 -1.453863E+002, -1.217010E+001,  0.000000E+000, -6.952026E+001,  1.160469E+000,  6.287030E+000,  3.001733E-001
  2.031391E+002,  2.170613E+001,  0.000000E+000, -8.740073E+001, -9.212806E+000, -1.870802E+000,  3.002243E-001
 -2.031391E+002, -2.170613E+001,  0.000000E+000,  8.740073E+001,  9.212806E+000,  1.870802E+000,  3.002243E-001
  1.446350E+002,  2.990018E+001,  0.000000E+000,  7.497156E+001,  8.027521E-001, -5.831496E+000,  3.002170E-001
 -1.446350E+002, -2.990018E+001,  0.000000E+000, -7.497156E+001, -8.027521E-001,  5.831496E+000,  3.002170E-001
  2.058816E+002,  3.798563E+001,  0.000000E+000, -8.951943E+001, -1.056506E+001, -3.326800E+000,  3.004644E-001
 -2.058816E+002, -3.798563E+001,  0.000000E+000,  8.951943E+001,  1.056506E+001,  3.326800E+000,  3.004644E-001
  1.429097E+002,  4.752792E+001,  0.000000E+000,  8.021932E+001,  2.887422E+000, -5.505416E+000,  3.003541E-001
 -1.429097E+002, -4.752792E+001,  0.000000E+000, -8.021932E+001, -2.887422E+000,  5.505416E+000,  3.003541E-001
  2.047430E+002,  5.335586E+001,  0.000000E+000, -9.066801E+001, -1.216124E+001, -4.457248E+000,  3.000766E-001
 -2.047430E+002, -5.335586E+001,  0.000000E+000,  9.066801E+001,  1.216124E+001,  4.457248E+000,  3.000766E-001
  1.412952E+002,  6.002773E+001,  0.000000E+000,  8.332842E+001,  4.252620E+000, -5.297724E+000,  3.005141E-001
 -1.412952E+002, -6.002773E+001,  0.000000E+000, -8.332842E+001, -4.252620E+000,  5.297724E+000,  3.005141E-001
  2.043524E+002,  7.545233E+001,  0.000000E+000, -9.105497E+001, -1.611578E+001, -3.775143E+000,  3.001783E-001
 -2.043524E+002, -7.545233E+001,  0.000000E+000,  9.105497E+001,  1.611578E+001,  3.775143E+000,  3.001783E-001
  1.404069E+002,  6.547936E+001,  0.000000E+000,  8.409989E+001,  4.283120E+000, -5.368073E+000,  3.003039E-001
 -1.404069E+002, -6.547936E+001,  0.000000E+000, -8.409989E+001, -4.283120E+000,  5.368073E+000,  3.003039E-001
  2.038786E+002,  9.752106E+001,  0.000000E+000, -9.091018E+001, -1.945599E+001, -3.004905E+000,  3.002557E-001
 -2.038786E+002, -9.752106E+001,  0.000000E+000,  9.091018E+001,  1.945599E+001,  3.004905E+000,  3.002557E-001
  1.391096E+002,  7.062728E+001,  0.000000E+000,  8.455500E+001,  3.890336E+000, -5.127341E+000,  3.004607E-001
 -1.391096E+002, -7.062728E+001,  0.000000E+000, -8.455500E+001, -3.890336E+000,  5.127341E+000,  3.004607E-001
  2.031712E+002,  1.204232E+002,  0.000000E+000, -8.981059E+001, -2.111981E+001, -2.316189E+000,  3.005842E-001
 -2.031712E+002, -1.204232E+002,  0.000000E+000,  8.981059E+001,  2.111981E+001,  2.316189E+000,  3.005842E-001
  1.367862E+002,  7.577653E+001,  0.000000E+000,  8.489479E+001,  3.356832E+000, -4.149719E+000,  3.003055E-001
 -1.367862E+002, -7.577653E+001,  0.000000E+000, -8.489479E+001, -3.356832E+000,  4.149719E+000,  3.003055E-001
  2.022468E+002,  1.430645E+002,  0.000000E+000, -8.812895E+001, -2.182921E+001, -1.660405E+000,  3.002784E-001
 -2.022468E+002, -1.430645E+002,  0.000000E+000,  8.812895E+001,  2.182921E+001,  1.660405E+000,  3.002784E-001
  1.330279E+002,  8.079016E+001,  0.000000E+000,  8.517123E+001,  2.885004E+000, -2.193538E+000,  3.003204E-001
 -1.330279E+002, -8.079016E+001,  0.000000E+000, -8.517123E+001, -2.885004E+000,  2.193538E+000,  3.003204E-001
  2.011855E+002,  1.649026E+002,  0.000000E+000, -8.606568E+001, -2.204684E+001, -9.913160E-001,  3.002181E-001
 -2.011855E+002, -1.649026E+002,  0.000000E+000,  8.606568E+001,  2.204684E+001,  9.913160E-001,  3.002181E-001
  1.297211E+002,  8.702816E+001,  0.000000E+000,  8.435357E+001,  2.368937E+000, -1.709741E-001,  3.000202E-001
 -1.297211E+002, -8.702816E+001,  0.000000E+000, -8.435357E+001, -2.368937E+000,  1.709741E-001,  3.000202E-001
  2.002567E+002,  1.859167E+002,  0.000000E+000, -8.376495E+001, -2.217696E+001, -2.928276E-001,  3.004434E-001
 -2.002567E+002, -1.859167E+002,  0.000000E+000,  8.376495E+001,  2.217696E+001,  2.928276E-001,  3.004434E-001
  1.278753E+002,  9.530934E+001,  0.000000E+000,  8.144859E+001,  1.331963E+000,  1.743229E+000,  3.001038E-001
 -1.278753E+002, -9.530934E+001,  0.000000E+000, -8.144859E+001, -1.331963E+000, -1.743229E+000,  3.001038E-001
  1.994804E+002,  2.056406E+002,  0.000000E+000, -8.131579E+001, -2.221099E+001,  4.548776E-001,  3.004069E-001
 -1.994804E+002, -2.056406E+002,  0.000000E+000,  8.131579E+001,  2.221099E+001, -4.548776E-001,  3.004069E-001
  1.272731E+002,  1.049914E+002,  0.000000E+000,  7.661238E+001, -5.479900E-001,  3.874912E+000,  3.003834E-001
 -1.272731E+002, -1.049914E+002,  0.000000E+000, -7.661238E+001,  5.479900E-001, -3.874912E+000,  3.003834E-001
  1.990816E+002,  2.234789E+002,  0.000000E+000, -7.859177E+001, -2.183827E+001,  1.546753E+000,  3.000488E-001
 -1.990816E+002, -2.234789E+002,  0.000000E+000,  7.859177E+001,  2.183827E+001, -1.546753E+000,  3.000488E-001
  1.261265E+002,  1.139335E+002,  0.000000E+000,  7.191115E+001, -2.335434E+000,  5.981088E+000,  3.004201E-001
 -1.261265E+002, -1.139335E+002,  0.000000E+000, -7.191115E+001,  2.335434E+000, -5.981088E+000,  3.004201E-001
  1.983160E+002,  2.316283E+002,  0.000000E+000, -7.693372E+001, -2.122439E+001,  2.069352E+000,  3.005406E-001
 -1.983160E+002, -2.316283E+002,  0.000000E+000,  7.693372E+001,  2.122439E+001, -2.069352E+000,  3.005406E-001
  2.001132E+002,  2.334440E+002,  0.000000E+000, -7.521514E+001, -2.082332E+001,  2.285414E+000,  3.000068E-001
 -2.001132E+002, -2.334440E+002,  0.000000E+000,  7.521514E+001,  2.082332E+001, -2.285414E+000,  3.000068E-001
  2.025266E+002,  2.342917E+002,  0.000000E+000, -7.307230E+001, -2.003608E+001,  2.873043E+000,  3.002192E-001
 -2.025266E+002, -2.342917E+002,  0.000000E+000,  7.307230E+001,  2.003608E+001, -2.873043E+000,  3.002192E-001
  2.055186E+002,  2.344669E+002,  0.000000E+000, -7.049545E+001, -1.882092E+001,  3.874638E+000,  3.004032E-001
 -2.055186E+002, -2.344669E+002,  0.000000E+000,  7.049545E+001,  1.882092E+001, -3.874638E+000,  3.004032E-001
  2.087667E+002,  2.344409E+002,  0.000000E+000, -6.766088E+001, -1.743030E+001,  5.015559E+000,  3.005073E-001
 -2.087667E+002, -2.344409E+002,  0.000000E+000,  6.766088E+001,  1.743030E+001, -5.015559E+000,  3.005073E-001
  2.120689E+002,  2.343083E+002,  0.000000E+000, -6.455384E+001, -1.592978E+001,  6.152823E+000,  3.004095E-001
 -2.120689E+002, -2.343083E+002,  0.000000E+000,  6.455384E+001,  1.592978E+001, -6.152823E+000,  3.004095E-001
  2.152166E+002,  2.338266E+002,  0.000000E+000, -6.101470E+001, -1.428348E+001,  7.227211E+000,  3.004441E-001
 -2.152166E+002, -2.338266E+002,  0.000000E+000,  6.101470E+001,  1.428348E+001, -7.227211E+000,  3.004441E-001
  2.175729E+002,  2.320919E+002,  0.000000E+000, -5.675669E+001, -1.223484E+001,  8.368087E+000,  3.002233E-001
 -2.175729E+002, -2.320919E+002,  0.000000E+000,  5.675669E+001,  1.223484E+001, -8.368087E+000,  3.002233E-001
  2.190930E+002,  2.293196E+002,  0.000000E+000, -5.178910E+001, -1.010399E+001,  9.568721E+000,  3.003646E-001
 -2.190930E+002, -2.293196E+002,  0.000000E+000,  5.178910E+001,  1.010399E+001, -9.568721E+000,  3.003646E-001
  2.172519E+002,  2.236580E+002,  0.000000E+000, -4.374584E+001, -8.520549E+000,  1.029102E+001,  3.000960E-001
 -2.172519E+002, -2.236580E+002,  0.000000E+000,  4.374584E+001,  8.520549E+000, -1.029102E+001,  3.000960E-001
  2.083556E+002,  2.121083E+002,  0.000000E+000, -3.010929E+001, -8.120763E+000,  9.544199E+000,  3.002000E-001
 -2.083556E+002, -2.121083E+002,  0.000000E+000,  3.010929E+001,  8.120763E+000, -9.544199E+000,  3.002000E-001
  1.983486E+002,  2.005776E+002,  0.000000E+000, -1.681372E+001, -7.486006E+000,  8.964398E+000,  3.002227E-001
 -1.983486E+002, -2.005776E+002,  0.000000E+000,  1.681372E+001,  7.486006E+000, -8.964398E+000,  3.002227E-001
  1.878595E+002,  1.892149E+002,  0.000000E+000, -4.218585E+000, -6.889396E+000,  8.556369E+000,  3.000398E-001
 -1.878595E+002, -1.892149E+002,  0.000000E+000,  4.218585E+000,  6.889396E+000, -8.556369E+000,  3.000398E-001
  1.771935E+002,  1.780115E+002,  0.000000E+000,  7.953374E+000, -6.339804E+000,  8.199225E+000,  3.000945E-001
 -1.771935E+002, -1.780115E+002,  0.000000E+000, -7.953374E+000,  6.339804E+000, -8.199225E+000,  3.000945E-001
  1.669811E+002,  1.674072E+002,  0.000000E+000,  1.940629E+001, -5.762815E+000,  7.886223E+000,  3.003443E-001
 -1.669811E+002, -1.674072E+002,  0.000000E+000, -1.940629E+001,  5.762815E+000, -7.886223E+000,  3.003443E-001
  1.570689E+002,  1.573619E+002,  0.000000E+000,  3.020262E+001, -5.192414E+000,  7.626165E+000,  3.001196E-001
 -1.570689E+002, -1.573619E+002,  0.000000E+000, -3.020262E+001,  5.192414E+000, -7.626165E+000,  3.001196E-001
  1.476310E+002,  1.479462E+002,  0.000000E+000,  4.031413E+001, -4.668739E+000,  7.411609E+000,  3.001418E-001
 -1.476310E+002, -1.479462E+002,  0.000000E+000, -4.031413E+001,  4.668739E+000, -7.411609E+000,  3.001418E-001
  1.386967E+002,  1.391013E+002,  0.000000E+000,  4.980580E+001, -4.181506E+000,  7.209639E+000,  3.003899E-001
 -1.386967E+002, -1.391013E+002,  0.000000E+000, -4.980580E+001,  4.181506E+000, -7.209639E+000,  3.003899E-001
  1.302352E+002,  1.307726E+002,  0.000000E+000,  5.868792E+001, -3.720603E+000,  7.029011E+000,  3.001283E-001
 -1.302352E+002, -1.307726E+002,  0.000000E+000, -5.868792E+001,  3.720603E+000, -7.029011E+000,  3.001283E-001
  1.223266E+002,  1.228854E+002,  0.000000E+000,  6.697926E+001, -3.309556E+000,  6.909489E+000,  3.002907E-001
 -1.223266E+002, -1.228854E+002,  0.000000E+000, -6.697926E+001,  3.309556E+000, -6.909489E+000,  3.002907E-001
  1.180180E+002, -1.243200E+002,  0.000000E+000, -7.138723E+001,  2.052103E+000, -5.517688E+000,  3.001190E-001
 -1.180180E+002,  1.243200E+002,  0.000000E+000,  7.138723E+001, -2.052103E+000,  5.517688E+000,  3.001190E-001
  1.188004E+002, -1.264482E+002,  0.000000E+000, -7.017954E+001,  1.162646E+000, -6.853332E+000,  3.002601E-001
 -1.188004E+002,  1.264482E+002,  0.000000E+000,  7.017954E+001, -1.162646E+000,  6.853332E+000,  3.002601E-001
  1.197347E+002, -1.289467E+002,  0.000000E+000, -6.820610E+001,  1.657009E-001, -8.310680E+000,  3.005465E-001
 -1.197347E+002,  1.289467E+002,  0.000000E+000,  6.820610E+001, -1.657009E-001,  8.310680E+000,  3.005465E-001
  1.206684E+002, -1.315448E+002,  0.000000E+000, -6.533827E+001, -6.858164E-001, -9.795149E+000,  3.004659E-001
 -1.206684E+002,  1.315448E+002,  0.000000E+000,  6.533827E+001,  6.858164E-001,  9.795149E+000,  3.004659E-001
  1.219475E+002, -1.343867E+002,  0.000000E+000, -6.019090E+001, -8.507053E-001, -1.115721E+001,  3.004657E-001
 -1.219475E+002,  1.343867E+002,  0.000000E+000,  6.019090E+001,  8.507053E-001,  1.115721E+001,  3.004657E-001
  1.241484E+002, -1.372958E+002,  0.000000E+000, -5.107377E+001,  3.146661E-001, -1.233283E+001,  3.004172E-001
 -1.241484E+002,  1.372958E+002,  0.000000E+000,  5.107377E+001, -3.146661E-001,  1.233283E+001,  3.004172E-001
  1.268919E+002, -1.401446E+002,  0.000000E+000, -4.010449E+001,  2.029374E+000, -1.354985E+001,  3.004003E-001
 -1.268919E+002,  1.401446E+002,  0.000000E+000,  4.010449E+001, -2.029374E+000,  1.354985E+001,  3.004003E-001
  1.295731E+002, -1.430851E+002,  0.000000E+000, -2.868723E+001,  3.838433E+000, -1.476381E+001,  3.004458E-001
 -1.295731E+002,  1.430851E+002,  0.000000E+000,  2.868723E+001, -3.838433E+000,  1.476381E+001,  3.004458E-001
  1.320177E+002, -1.460878E+002,  0.000000E+000, -1.695860E+001,  5.785969E+000, -1.600387E+001,  3.004939E-001
 -1.320177E+002,  1.460878E+002,  0.000000E+000,  1.695860E+001, -5.785969E+000,  1.600387E+001,  3.004939E-001
  1.338008E+002, -1.465244E+002,  0.000000E+000, -8.171585E+000,  7.774234E+000, -1.508566E+001,  3.003855E-001
 -1.338008E+002,  1.465244E+002,  0.000000E+000,  8.171585E+000, -7.774234E+000,  1.508566E+001,  3.003855E-001
  1.351907E+002, -1.440944E+002,  0.000000E+000, -3.261153E+000,  1.024082E+001, -1.171702E+001,  3.005571E-001
 -1.351907E+002,  1.440944E+002,  0.000000E+000,  3.261153E+000, -1.024082E+001,  1.171702E+001,  3.005571E-001
  1.349684E+002, -1.415099E+002,  0.000000E+000,  2.781029E+000,  1.213496E+001, -8.566066E+000,  3.004344E-001
 -1.349684E+002,  1.415099E+002,  0.000000E+000, -2.781029E+000, -1.213496E+001,  8.566066E+000,  3.004344E-001
  1.302139E+002, -1.394501E+002,  0.000000E+000,  1.106035E+001,  1.133973E+001, -5.985626E+000,  3.004507E-001
 -1.302139E+002,  1.394501E+002,  0.000000E+000, -1.106035E+001, -1.133973E+001,  5.985626E+000,  3.004507E-001
  1.255204E+002, -1.383883E+002,  0.000000E+000,  1.705988E+001,  9.470649E+000, -5.155691E+000,  3.001862E-001
 -1.255204E+002,  1.383883E+002,  0.000000E+000, -1.705988E+001, -9.470649E+000,  5.155691E+000,  3.001862E-001
  1.213107E+002, -1.378626E+002,  0.000000E+000,  2.126955E+001,  7.257574E+000, -5.480686E+000,  3.005560E-001
 -1.213107E+002,  1.378626E+002,  0.000000E+000, -2.126955E+001, -7.257574E+000,  5.480686E+000,  3.005560E-001
  1.168558E+002, -1.371137E+002,  0.000000E+000,  2.519559E+001,  4.817166E+000, -6.169902E+000,  3.001473E-001
 -1.168558E+002,  1.371137E+002,  0.000000E+000, -2.519559E+001, -4.817166E+000,  6.169902E+000,  3.001473E-001
  1.121125E+002, -1.359306E+002,  0.000000E+000,  2.889388E+001,  2.355912E+000, -7.046275E+000,  3.003246E-001
 -1.121125E+002,  1.359306E+002,  0.000000E+000, -2.889388E+001, -2.355912E+000,  7.046275E+000,  3.003246E-001
  1.073734E+002, -1.344797E+002,  0.000000E+000,  3.205459E+001,  1.368275E-001, -7.966072E+000,  3.001952E-001
 -1.073734E+002,  1.344797E+002,  0.000000E+000, -3.205459E+001, -1.368275E-001,  7.966072E+000,  3.001952E-001
  1.020535E+002, -1.318134E+002,  0.000000E+000,  3.552546E+001, -1.528761E+000, -8.666865E+000,  3.000062E-001
 -1.020535E+002,  1.318134E+002,  0.000000E+000, -3.552546E+001,  1.528761E+000,  8.666865E+000,  3.000062E-001
  9.582576E+001, -1.265607E+002,  0.000000E+000,  3.988474E+001, -2.275044E+000, -9.336394E+000,  3.001793E-001
 -9.582576E+001,  1.265607E+002,  0.000000E+000, -3.988474E+001,  2.275044E+000,  9.336394E+000,  3.001793E-001
  1.301864E+002, -1.105978E+002,  0.000000E+000, -7.209194E+001,  1.125509E+000, -3.540865E+000,  3.004202E-001
 -1.301864E+002,  1.105978E+002,  0.000000E+000,  7.209194E+001, -1.125509E+000,  3.540865E+000,  3.004202E-001
  1.061503E+002, -1.091144E+002,  0.000000E+000,  4.250003E+001, -2.647124E+000, -8.601858E+000,  3.003868E-001
 -1.061503E+002,  1.091144E+002,  0.000000E+000, -4.250003E+001,  2.647124E+000,  8.601858E+000,  3.003868E-001
  1.431514E+002, -9.582015E+001,  0.000000E+000, -7.285646E+001,  1.501269E-001, -1.433750E+000,  3.001250E-001
 -1.431514E+002,  9.582015E+001,  0.000000E+000,  7.285646E+001, -1.501269E-001,  1.433750E+000,  3.001250E-001
  1.168266E+002, -8.979328E+001,  0.000000E+000,  4.551158E+001, -2.851418E+000, -7.905881E+000,  3.001856E-001
 -1.168266E+002,  8.979328E+001,  0.000000E+000, -4.551158E+001,  2.851418E+000,  7.905881E+000,  3.001856E-001
  1.564325E+002, -7.887393E+001,  0.000000E+000, -7.408679E+001, -9.405947E-001,  4.999243E-001,  3.003247E-001
 -1.564325E+002,  7.887393E+001,  0.000000E+000,  7.408679E+001,  9.405947E-001, -4.999243E-001,  3.003247E-001
  1.279978E+002, -6.933836E+001,  0.000000E+000,  4.869154E+001, -3.076986E+000, -7.175419E+000,  3.003683E-001
 -1.279978E+002,  6.933836E+001,  0.000000E+000, -4.869154E+001,  3.076986E+000,  7.175419E+000,  3.003683E-001
  1.695030E+002, -5.947391E+001,  0.000000E+000, -7.591587E+001, -2.157867E+000,  2.147408E+000,  3.002447E-001
 -1.695030E+002,  5.947391E+001,  0.000000E+000,  7.591587E+001,  2.157867E+000, -2.147408E+000,  3.002447E-001
  1.397249E+002, -4.752914E+001,  0.000000E+000,  5.211389E+001, -3.280498E+000, -6.432645E+000,  3.004057E-001
 -1.397249E+002,  4.752914E+001,  0.000000E+000, -5.211389E+001,  3.280498E+000,  6.432645E+000,  3.004057E-001
  1.816122E+002, -3.718523E+001,  0.000000E+000, -7.851310E+001, -3.404631E+000,  3.127227E+000,  3.005210E-001
 -1.816122E+002,  3.718523E+001,  0.000000E+000,  7.851310E+001,  3.404631E+000, -3.127227E+000,  3.005210E-001
  1.493697E+002, -2.598284E+001,  0.000000E+000,  5.594405E+001, -2.862697E+000, -5.910045E+000,  3.003144E-001
 -1.493697E+002,  2.598284E+001,  0.000000E+000, -5.594405E+001,  2.862697E+000,  5.910045E+000,  3.003144E-001
  1.935670E+002, -1.468368E+001,  0.000000E+000, -8.109452E+001, -5.156479E+000,  3.237880E+000,  3.000936E-001
 -1.935670E+002,  1.468368E+001,  0.000000E+000,  8.109452E+001,  5.156479E+000, -3.237880E+000,  3.000936E-001
  1.521795E+002, -7.949669E+000,  0.000000E+000,  6.057471E+001, -1.189438E+000, -5.550319E+000,  3.004649E-001
 -1.521795E+002,  7.949669E+000,  0.000000E+000, -6.057471E+001,  1.189438E+000,  5.550319E+000,  3.004649E-001
  2.057248E+002,  6.295157E+000,  0.000000E+000, -8.323144E+001, -7.825424E+000,  2.191330E+000,  3.000869E-001
 -2.057248E+002, -6.295157E+000,  0.000000E+000,  8.323144E+001,  7.825424E+000, -2.191330E+000,  3.000869E-001
  1.515820E+002,  8.282907E+000,  0.000000E+000,  6.563925E+001,  6.111418E-001, -5.144731E+000,  3.003933E-001
 -1.515820E+002, -8.282907E+000,  0.000000E+000, -6.563925E+001, -6.111418E-001,  5.144731E+000,  3.003933E-001
  2.132389E+002,  2.474947E+001,  0.000000E+000, -8.555920E+001, -9.661060E+000,  1.147749E+000,  3.001469E-001
 -2.132389E+002, -2.474947E+001,  0.000000E+000,  8.555920E+001,  9.661060E+000, -1.147749E+000,  3.001469E-001
  1.504565E+002,  2.472841E+001,  0.000000E+000,  7.073698E+001,  2.433073E+000, -4.724141E+000,  3.002312E-001
 -1.504565E+002, -2.472841E+001,  0.000000E+000, -7.073698E+001, -2.433073E+000,  4.724141E+000,  3.002312E-001
  2.118072E+002,  3.623566E+001,  0.000000E+000, -8.751148E+001, -1.010300E+001, -3.683140E-001,  3.003049E-001
 -2.118072E+002, -3.623566E+001,  0.000000E+000,  8.751148E+001,  1.010300E+001,  3.683140E-001,  3.003049E-001
  1.485648E+002,  4.117142E+001,  0.000000E+000,  7.569542E+001,  4.303893E+000, -4.425226E+000,  3.002620E-001
 -1.485648E+002, -4.117142E+001,  0.000000E+000, -7.569542E+001, -4.303893E+000,  4.425226E+000,  3.002620E-001
  2.104723E+002,  5.078809E+001,  0.000000E+000, -8.861430E+001, -1.153148E+001, -1.506065E+000,  3.002724E-001
 -2.104723E+002, -5.078809E+001,  0.000000E+000,  8.861430E+001,  1.153148E+001,  1.506065E+000,  3.002724E-001
  1.466619E+002,  5.723634E+001,  0.000000E+000,  8.016679E+001,  6.186760E+000, -4.185304E+000,  3.000592E-001
 -1.466619E+002, -5.723634E+001,  0.000000E+000, -8.016679E+001, -6.186760E+000,  4.185304E+000,  3.000592E-001
  2.100342E+002,  7.157044E+001,  0.000000E+000, -8.903785E+001, -1.520778E+001, -8.336830E-001,  3.002749E-001
 -2.100342E+002, -7.157044E+001,  0.000000E+000,  8.903785E+001,  1.520778E+001,  8.336830E-001,  3.002749E-001
  1.454647E+002,  6.460970E+001,  0.000000E+000,  8.162970E+001,  6.565117E+000, -4.178733E+000,  3.004591E-001
 -1.454647E+002, -6.460970E+001,  0.000000E+000, -8.162970E+001, -6.565117E+000,  4.178733E+000,  3.004591E-001
  2.094147E+002,  9.300529E+001,  0.000000E+000, -8.885263E+001, -1.813448E+001, -1.223775E-001,  3.003264E-001
 -2.094147E+002, -9.300529E+001,  0.000000E+000,  8.885263E+001,  1.813448E+001,  1.223775E-001,  3.003264E-001
  1.446197E+002,  6.955507E+001,  0.000000E+000,  8.213417E+001,  6.341110E+000, -4.341694E+000,  3.002425E-001
 -1.446197E+002, -6.955507E+001,  0.000000E+000, -8.213417E+001, -6.341110E+000,  4.341694E+000,  3.002425E-001
  2.086445E+002,  1.149302E+002,  0.000000E+000, -8.765130E+001, -1.939889E+001,  4.729390E-001,  3.005243E-001
 -2.086445E+002, -1.149302E+002,  0.000000E+000,  8.765130E+001,  1.939889E+001, -4.729390E-001,  3.005243E-001
  1.434474E+002,  7.428924E+001,  0.000000E+000,  8.246773E+001,  5.859186E+000, -4.276975E+000,  3.000433E-001
 -1.434474E+002, -7.428924E+001,  0.000000E+000, -8.246773E+001, -5.859186E+000,  4.276975E+000,  3.000433E-001
  2.076603E+002,  1.365775E+002,  0.000000E+000, -8.601739E+001, -1.999336E+001,  1.016304E+000,  3.003425E-001
 -2.076603E+002, -1.365775E+002,  0.000000E+000,  8.601739E+001,  1.999336E+001, -1.016304E+000,  3.003425E-001
  1.416954E+002,  7.923100E+001,  0.000000E+000,  8.237915E+001,  5.293757E+000, -3.571830E+000,  3.004565E-001
 -1.416954E+002, -7.923100E+001,  0.000000E+000, -8.237915E+001, -5.293757E+000,  3.571830E+000,  3.004565E-001
  2.066459E+002,  1.576077E+002,  0.000000E+000, -8.391667E+001, -2.018435E+001,  1.553795E+000,  3.001561E-001
 -2.066459E+002, -1.576077E+002,  0.000000E+000,  8.391667E+001,  2.018435E+001, -1.553795E+000,  3.001561E-001
  1.399846E+002,  8.682087E+001,  0.000000E+000,  8.029479E+001,  4.312685E+000, -1.646803E+000,  3.000379E-001
 -1.399846E+002, -8.682087E+001,  0.000000E+000, -8.029479E+001, -4.312685E+000,  1.646803E+000,  3.000379E-001
  2.057926E+002,  1.778859E+002,  0.000000E+000, -8.159398E+001, -2.033135E+001,  2.118164E+000,  3.002845E-001
 -2.057926E+002, -1.778859E+002,  0.000000E+000,  8.159398E+001,  2.033135E+001, -2.118164E+000,  3.002845E-001
  1.392794E+002,  9.646316E+001,  0.000000E+000,  7.594999E+001,  2.418061E+000,  6.264856E-001,  3.003933E-001
 -1.392794E+002, -9.646316E+001,  0.000000E+000, -7.594999E+001, -2.418061E+000, -6.264856E-001,  3.003933E-001
  2.049439E+002,  1.970057E+002,  0.000000E+000, -7.927994E+001, -2.039741E+001,  2.729480E+000,  3.003334E-001
 -2.049439E+002, -1.970057E+002,  0.000000E+000,  7.927994E+001,  2.039741E+001, -2.729480E+000,  3.003334E-001
  1.386866E+002,  1.058688E+002,  0.000000E+000,  7.129253E+001,  4.835784E-001,  2.659494E+000,  3.003818E-001
 -1.386866E+002, -1.058688E+002,  0.000000E+000, -7.129253E+001, -4.835784E-001, -2.659494E+000,  3.003818E-001
  2.040917E+002,  2.150716E+002,  0.000000E+000, -7.703374E+001, -2.044246E+001,  3.321535E+000,  3.005516E-001
 -2.040917E+002, -2.150716E+002,  0.000000E+000,  7.703374E+001,  2.044246E+001, -3.321535E+000,  3.005516E-001
  1.379816E+002,  1.142821E+002,  0.000000E+000,  6.697733E+001, -1.285659E+000,  4.474845E+000,  3.003741E-001
 -1.379816E+002, -1.142821E+002,  0.000000E+000, -6.697733E+001,  1.285659E+000, -4.474845E+000,  3.003741E-001
  2.025984E+002,  2.282059E+002,  0.000000E+000, -7.549185E+001, -2.054880E+001,  3.346851E+000,  3.003533E-001
 -2.025984E+002, -2.282059E+002,  0.000000E+000,  7.549185E+001,  2.054880E+001, -3.346851E+000,  3.003533E-001
  2.054241E+002,  2.295231E+002,  0.000000E+000, -7.304946E+001, -1.938244E+001,  4.540032E+000,  3.000923E-001
 -2.054241E+002, -2.295231E+002,  0.000000E+000,  7.304946E+001,  1.938244E+001, -4.540032E+000,  3.000923E-001
  2.084062E+002,  2.301656E+002,  0.000000E+000, -7.051961E+001, -1.827137E+001,  5.673653E+000,  3.003945E-001
 -2.084062E+002, -2.301656E+002,  0.000000E+000,  7.051961E+001,  1.827137E+001, -5.673653E+000,  3.003945E-001
  2.115479E+002,  2.303670E+002,  0.000000E+000, -6.787826E+001, -1.700889E+001,  6.862672E+000,  3.002794E-001
 -2.115479E+002, -2.303670E+002,  0.000000E+000,  6.787826E+001,  1.700889E+001, -6.862672E+000,  3.002794E-001
  2.148721E+002,  2.303026E+002,  0.000000E+000, -6.507850E+001, -1.562852E+001,  8.105816E+000,  3.001996E-001
 -2.148721E+002, -2.303026E+002,  0.000000E+000,  6.507850E+001,  1.562852E+001, -8.105816E+000,  3.001996E-001
  2.183030E+002,  2.299985E+002,  0.000000E+000, -6.204303E+001, -1.414968E+001,  9.379477E+000,  3.003386E-001
 -2.183030E+002, -2.299985E+002,  0.000000E+000,  6.204303E+001,  1.414968E+001, -9.379477E+000,  3.003386E-001
  2.214552E+002,  2.289009E+002,  0.000000E+000, -5.836478E+001, -1.241950E+001,  1.065549E+001,  3.000825E-001
 -2.214552E+002, -2.289009E+002,  0.000000E+000,  5.836478E+001,  1.241950E+001, -1.065549E+001,  3.000825E-001
  2.239310E+002,  2.269016E+002,  0.000000E+000, -5.427293E+001, -1.043557E+001,  1.200303E+001,  3.005127E-001
 -2.239310E+002, -2.269016E+002,  0.000000E+000,  5.427293E+001,  1.043557E+001, -1.200303E+001,  3.005127E-001
  2.255771E+002,  2.239928E+002,  0.000000E+000, -4.942444E+001, -8.413790E+000,  1.323503E+001,  3.003125E-001
 -2.255771E+002, -2.239928E+002,  0.000000E+000,  4.942444E+001,  8.413790E+000, -1.323503E+001,  3.003125E-001
  2.244340E+002,  2.182217E+002,  0.000000E+000, -4.172136E+001, -7.064279E+000,  1.366407E+001,  3.003756E-001
 -2.244340E+002, -2.182217E+002,  0.000000E+000,  4.172136E+001,  7.064279E+000, -1.366407E+001,  3.003756E-001
  2.180237E+002,  2.071253E+002,  0.000000E+000, -2.929661E+001, -7.001200E+000,  1.226904E+001,  3.000494E-001
 -2.180237E+002, -2.071253E+002,  0.000000E+000,  2.929661E+001,  7.001200E+000, -1.226904E+001,  3.000494E-001
  2.108489E+002,  1.960336E+002,  0.000000E+000, -1.719441E+001, -6.812729E+000,  1.091457E+001,  3.001955E-001
 -2.108489E+002, -1.960336E+002,  0.000000E+000,  1.719441E+001,  6.812729E+000, -1.091457E+001,  3.001955E-001
  2.024635E+002,  1.852190E+002,  0.000000E+000, -5.608994E+000, -6.575324E+000,  9.825915E+000,  3.004197E-001
 -2.024635E+002, -1.852190E+002,  0.000000E+000,  5.608994E+000,  6.575324E+000, -9.825915E+000,  3.004197E-001
  1.926760E+002,  1.745236E+002,  0.000000E+000,  5.929136E+000, -6.189866E+000,  8.996917E+000,  3.003450E-001
 -1.926760E+002, -1.745236E+002,  0.000000E+000, -5.929136E+000,  6.189866E+000, -8.996917E+000,  3.003450E-001
  1.825741E+002,  1.644076E+002,  0.000000E+000,  1.692342E+001, -5.674727E+000,  8.450790E+000,  3.002743E-001
 -1.825741E+002, -1.644076E+002,  0.000000E+000, -1.692342E+001,  5.674727E+000, -8.450790E+000,  3.002743E-001
  1.726575E+002,  1.548244E+002,  0.000000E+000,  2.733857E+001, -5.127162E+000,  8.026753E+000,  3.000174E-001
 -1.726575E+002, -1.548244E+002,  0.000000E+000, -2.733857E+001,  5.127162E+000, -8.026753E+000,  3.000174E-001
  1.632348E+002,  1.457932E+002,  0.000000E+000,  3.712171E+001, -4.595071E+000,  7.613029E+000,  3.001473E-001
 -1.632348E+002, -1.457932E+002,  0.000000E+000, -3.712171E+001,  4.595071E+000, -7.613029E+000,  3.001473E-001
  1.541978E+002,  1.373138E+002,  0.000000E+000,  4.631240E+001, -4.055719E+000,  7.179994E+000,  3.002774E-001
 -1.541978E+002, -1.373138E+002,  0.000000E+000, -4.631240E+001,  4.055719E+000, -7.179994E+000,  3.002774E-001
  1.453386E+002,  1.294037E+002,  0.000000E+000,  5.492551E+001, -3.471139E+000,  6.713640E+000,  3.001920E-001
 -1.453386E+002, -1.294037E+002,  0.000000E+000, -5.492551E+001,  3.471139E+000, -6.713640E+000,  3.001920E-001
  1.366901E+002,  1.220102E+002,  0.000000E+000,  6.299033E+001, -2.852457E+000,  6.230583E+000,  3.002899E-001
 -1.366901E+002, -1.220102E+002,  0.000000E+000, -6.299033E+001,  2.852457E+000, -6.230583E+000,  3.002899E-001
  1.314733E+002, -1.122524E+002,  0.000000E+000, -7.093659E+001,  1.606286E-001, -4.839217E+000,  3.005467E-001
 -1.314733E+002,  1.122524E+002,  0.000000E+000,  7.093659E+001, -1.606286E-001,  4.839217E+000,  3.005467E-001
  1.327224E+002, -1.139244E+002,  0.000000E+000, -6.961719E+001, -8.003847E-001, -6.138414E+000,  3.005626E-001
 -1.327224E+002,  1.139244E+002,  0.000000E+000,  6.961719E+001,  8.003847E-001,  6.138414E+000,  3.005626E-001
  1.341282E+002, -1.159735E+002,  0.000000E+000, -6.739400E+001, -1.803287E+000, -7.495008E+000,  3.004733E-001
 -1.341282E+002,  1.159735E+002,  0.000000E+000,  6.739400E+001,  1.803287E+000,  7.495008E+000,  3.004733E-001
  1.356307E+002, -1.180127E+002,  0.000000E+000, -6.415068E+001, -2.537550E+000, -8.816058E+000,  3.004226E-001
 -1.356307E+002,  1.180127E+002,  0.000000E+000,  6.415068E+001,  2.537550E+000,  8.816058E+000,  3.004226E-001
  1.376772E+002, -1.202335E+002,  0.000000E+000, -5.794324E+001, -2.318397E+000, -9.949870E+000,  3.005864E-001
 -1.376772E+002,  1.202335E+002,  0.000000E+000,  5.794324E+001,  2.318397E+000,  9.949870E+000,  3.005864E-001
  1.404084E+002, -1.225224E+002,  0.000000E+000, -4.841180E+001, -9.633056E-001, -1.099929E+001,  3.002550E-001
 -1.404084E+002,  1.225224E+002,  0.000000E+000,  4.841180E+001,  9.633056E-001,  1.099929E+001,  3.002550E-001
  1.432907E+002, -1.249151E+002,  0.000000E+000, -3.795331E+001,  6.368521E-001, -1.210970E+001,  3.000804E-001
 -1.432907E+002,  1.249151E+002,  0.000000E+000,  3.795331E+001, -6.368521E-001,  1.210970E+001,  3.000804E-001
  1.459790E+002, -1.274254E+002,  0.000000E+000, -2.717567E+001,  2.383305E+000, -1.324001E+001,  3.005817E-001
 -1.459790E+002,  1.274254E+002,  0.000000E+000,  2.717567E+001, -2.383305E+000,  1.324001E+001,  3.005817E-001
  1.485077E+002, -1.299430E+002,  0.000000E+000, -1.607271E+001,  4.164687E+000, -1.436007E+001,  3.002253E-001
 -1.485077E+002,  1.299430E+002,  0.000000E+000,  1.607271E+001, -4.164687E+000,  1.436007E+001,  3.002253E-001
  1.503496E+002, -1.304580E+002,  0.000000E+000, -7.287134E+000,  6.014915E+000, -1.367379E+001,  3.000166E-001
 -1.503496E+002,  1.304580E+002,  0.000000E+000,  7.287134E+000, -6.014915E+000,  1.367379E+001,  3.000166E-001
  1.517012E+002, -1.281816E+002,  0.000000E+000, -2.597230E+000,  8.339935E+000, -1.047278E+001,  3.005568E-001
 -1.517012E+002,  1.281816E+002,  0.000000E+000,  2.597230E+000, -8.339935E+000,  1.047278E+001,  3.005568E-001
  1.525927E+002, -1.256514E+002,  0.000000E+000,  2.309466E+000,  1.074193E+001, -7.386244E+000,  3.003139E-001
 -1.525927E+002,  1.256514E+002,  0.000000E+000, -2.309466E+000, -1.074193E+001,  7.386244E+000,  3.003139E-001
  1.491541E+002, -1.238318E+002,  0.000000E+000,  9.449497E+000,  1.080999E+001, -4.840347E+000,  3.000870E-001
 -1.491541E+002,  1.238318E+002,  0.000000E+000, -9.449497E+000, -1.080999E+001,  4.840347E+000,  3.000870E-001
  1.444191E+002, -1.230358E+002,  0.000000E+000,  1.543115E+001,  9.168987E+000, -3.871982E+000,  3.000081E-001
 -1.444191E+002,  1.230358E+002,  0.000000E+000, -1.543115E+001, -9.168987E+000,  3.871982E+000,  3.000081E-001
  1.400609E+002, -1.228252E+002,  0.000000E+000,  1.964189E+001,  7.058034E+000, -4.022862E+000,  3.004049E-001
 -1.400609E+002,  1.228252E+002,  0.000000E+000, -1.964189E+001, -7.058034E+000,  4.022862E+000,  3.004049E-001
  1.356714E+002, -1.225622E+002,  0.000000E+000,  2.338736E+001,  4.820706E+000, -4.632053E+000,  3.000893E-001
 -1.356714E+002,  1.225622E+002,  0.000000E+000, -2.338736E+001, -4.820706E+000,  4.632053E+000,  3.000893E-001
  1.308172E+002, -1.218858E+002,  0.000000E+000,  2.703209E+001,  2.488790E+000, -5.444056E+000,  3.000654E-001
 -1.308172E+002,  1.218858E+002,  0.000000E+000, -2.703209E+001, -2.488790E+000,  5.444056E+000,  3.000654E-001
  1.257563E+002, -1.210982E+002,  0.000000E+000,  3.017726E+001,  3.506702E-001, -6.377143E+000,  3.003911E-001
 -1.257563E+002,  1.210982E+002,  0.000000E+000, -3.017726E+001, -3.506702E-001,  6.377143E+000,  3.003911E-001
  1.203262E+002, -1.195461E+002,  0.000000E+000,  3.335906E+001, -1.455487E+000, -7.119133E+000,  3.001604E-001
 -1.203262E+002,  1.195461E+002,  0.000000E+000, -3.335906E+001,  1.455487E+000,  7.119133E+000,  3.001604E-001
  1.139876E+002, -1.157533E+002,  0.000000E+000,  3.733026E+001, -2.413727E+000, -7.775621E+000,  3.002556E-001
 -1.139876E+002,  1.157533E+002,  0.000000E+000, -3.733026E+001,  2.413727E+000,  7.775621E+000,  3.002556E-001
  1.436331E+002, -9.862391E+001,  0.000000E+000, -7.160603E+001, -7.892144E-001, -2.897994E+000,  3.003205E-001
 -1.436331E+002,  9.862391E+001,  0.000000E+000,  7.160603E+001,  7.892144E-001,  2.897994E+000,  3.003205E-001
  1.453700E+002, -9.978129E+001,  0.000000E+000, -7.043505E+001, -1.813755E+000, -4.156122E+000,  3.004814E-001
 -1.453700E+002,  9.978129E+001,  0.000000E+000,  7.043505E+001,  1.813755E+000,  4.156122E+000,  3.004814E-001
  1.472996E+002, -1.012509E+002,  0.000000E+000, -6.858717E+001, -2.949820E+000, -5.549753E+000,  3.005136E-001
 -1.472996E+002,  1.012509E+002,  0.000000E+000,  6.858717E+001,  2.949820E+000,  5.549753E+000,  3.005136E-001
  1.494202E+002, -1.029396E+002,  0.000000E+000, -6.566356E+001, -3.983491E+000, -6.918045E+000,  3.005966E-001
 -1.494202E+002,  1.029396E+002,  0.000000E+000,  6.566356E+001,  3.983491E+000,  6.918045E+000,  3.005966E-001
  1.519794E+002, -1.046822E+002,  0.000000E+000, -6.021326E+001, -4.195066E+000, -8.083819E+000,  3.003211E-001
 -1.519794E+002,  1.046822E+002,  0.000000E+000,  6.021326E+001,  4.195066E+000,  8.083819E+000,  3.003211E-001
  1.551409E+002, -1.066497E+002,  0.000000E+000, -5.082589E+001, -3.023685E+000, -9.114338E+000,  3.003264E-001
 -1.551409E+002,  1.066497E+002,  0.000000E+000,  5.082589E+001,  3.023685E+000,  9.114338E+000,  3.003264E-001
  1.583987E+002, -1.088493E+002,  0.000000E+000, -3.994436E+001, -1.398346E+000, -1.023272E+001,  3.000019E-001
 -1.583987E+002,  1.088493E+002,  0.000000E+000,  3.994436E+001,  1.398346E+000,  1.023272E+001,  3.000019E-001
  1.614112E+002, -1.111874E+002,  0.000000E+000, -2.871575E+001,  3.835610E-001, -1.137501E+001,  3.001064E-001
 -1.614112E+002,  1.111874E+002,  0.000000E+000,  2.871575E+001, -3.835610E-001,  1.137501E+001,  3.001064E-001
  1.642377E+002, -1.135997E+002,  0.000000E+000, -1.706771E+001,  2.248941E+000, -1.248557E+001,  3.002231E-001
 -1.642377E+002,  1.135997E+002,  0.000000E+000,  1.706771E+001, -2.248941E+000,  1.248557E+001,  3.002231E-001
  1.653293E+002, -1.155048E+002,  0.000000E+000, -6.886584E+000,  4.641544E+000, -1.215633E+001,  3.002395E-001
 -1.653293E+002,  1.155048E+002,  0.000000E+000,  6.886584E+000, -4.641544E+000,  1.215633E+001,  3.002395E-001
  1.669568E+002, -1.131034E+002,  0.000000E+000, -1.608361E+000,  7.013449E+000, -9.001480E+000,  3.000340E-001
 -1.669568E+002,  1.131034E+002,  0.000000E+000,  1.608361E+000, -7.013449E+000,  9.001480E+000,  3.000340E-001
  1.685630E+002, -1.100369E+002,  0.000000E+000,  3.391997E+000,  9.430235E+000, -5.732864E+000,  3.004728E-001
 -1.685630E+002,  1.100369E+002,  0.000000E+000, -3.391997E+000, -9.430235E+000,  5.732864E+000,  3.004728E-001
  1.666949E+002, -1.077744E+002,  0.000000E+000,  9.852217E+000,  9.883500E+000, -3.196857E+000,  3.005400E-001
 -1.666949E+002,  1.077744E+002,  0.000000E+000, -9.852217E+000, -9.883500E+000,  3.196857E+000,  3.005400E-001
  1.617664E+002, -1.073527E+002,  0.000000E+000,  1.561055E+001,  8.080760E+000, -2.497168E+000,  3.003661E-001
 -1.617664E+002,  1.073527E+002,  0.000000E+000, -1.561055E+001, -8.080760E+000,  2.497168E+000,  3.003661E-001
  1.568298E+002, -1.075476E+002,  0.000000E+000,  1.988548E+001,  5.784428E+000, -2.799778E+000,  3.004070E-001
 -1.568298E+002,  1.075476E+002,  0.000000E+000, -1.988548E+001, -5.784428E+000,  2.799778E+000,  3.004070E-001
  1.515787E+002, -1.076150E+002,  0.000000E+000,  2.380023E+001,  3.355147E+000, -3.544543E+000,  3.003869E-001
 -1.515787E+002,  1.076150E+002,  0.000000E+000, -2.380023E+001, -3.355147E+000,  3.544543E+000,  3.003869E-001
  1.457299E+002, -1.073778E+002,  0.000000E+000,  2.748704E+001,  9.434314E-001, -4.500823E+000,  3.003033E-001
 -1.457299E+002,  1.073778E+002,  0.000000E+000, -2.748704E+001, -9.434314E-001,  4.500823E+000,  3.003033E-001
  1.396886E+002, -1.067763E+002,  0.000000E+000,  3.079094E+001, -1.161361E+000, -5.434057E+000,  3.003305E-001
 -1.396886E+002,  1.067763E+002,  0.000000E+000, -3.079094E+001,  1.161361E+000,  5.434057E+000,  3.003305E-001
  1.327865E+002, -1.042621E+002,  0.000000E+000,  3.473390E+001, -2.524421E+000, -6.152682E+000,  3.003024E-001
 -1.327865E+002,  1.042621E+002,  0.000000E+000, -3.473390E+001,  2.524421E+000,  6.152682E+000,  3.003024E-001
  1.247755E+002, -9.906100E+001,  0.000000E+000,  3.958543E+001, -2.933065E+000, -6.962934E+000,  3.000907E-001
 -1.247755E+002,  9.906100E+001,  0.000000E+000, -3.958543E+001,  2.933065E+000,  6.962934E+000,  3.000907E-001
  1.566054E+002, -8.410022E+001,  0.000000E+000, -7.227059E+001, -1.789299E+000, -8.220879E-001,  3.000227E-001
 -1.566054E+002,  8.410022E+001,  0.000000E+000,  7.227059E+001,  1.789299E+000,  8.220879E-001,  3.000227E-001
  1.589375E+002, -8.466363E+001,  0.000000E+000, -7.116164E+001, -2.908907E+000, -2.026175E+000,  3.005420E-001
 -1.589375E+002,  8.466363E+001,  0.000000E+000,  7.116164E+001,  2.908907E+000,  2.026175E+000,  3.005420E-001
  1.614278E+002, -8.542164E+001,  0.000000E+000, -6.969818E+001, -4.146880E+000, -3.392886E+000,  3.001522E-001
 -1.614278E+002,  8.542164E+001,  0.000000E+000,  6.969818E+001,  4.146880E+000,  3.392886E+000,  3.001522E-001
  1.641908E+002, -8.660974E+001,  0.000000E+000, -6.703271E+001, -5.430148E+000, -4.812467E+000,  3.002134E-001
 -1.641908E+002,  8.660974E+001,  0.000000E+000,  6.703271E+001,  5.430148E+000,  4.812467E+000,  3.002134E-001
  1.672838E+002, -8.789093E+001,  0.000000E+000, -6.239950E+001, -6.183707E+000, -6.070196E+000,  3.005391E-001
 -1.672838E+002,  8.789093E+001,  0.000000E+000,  6.239950E+001,  6.183707E+000,  6.070196E+000,  3.005391E-001
  1.709417E+002, -8.948884E+001,  0.000000E+000, -5.340161E+001, -5.327416E+000, -7.049795E+000,  3.001860E-001
 -1.709417E+002,  8.948884E+001,  0.000000E+000,  5.340161E+001,  5.327416E+000,  7.049795E+000,  3.001860E-001
  1.746968E+002, -9.138007E+001,  0.000000E+000, -4.214717E+001, -3.733285E+000, -8.136578E+000,  3.002947E-001
 -1.746968E+002,  9.138007E+001,  0.000000E+000,  4.214717E+001,  3.733285E+000,  8.136578E+000,  3.002947E-001
  1.778709E+002, -9.361504E+001,  0.000000E+000, -3.047716E+001, -1.845264E+000, -9.226505E+000,  3.004319E-001
 -1.778709E+002,  9.361504E+001,  0.000000E+000,  3.047716E+001,  1.845264E+000,  9.226505E+000,  3.004319E-001
  1.785836E+002, -9.738311E+001,  0.000000E+000, -1.872937E+001,  1.049782E+000, -9.664182E+000,  3.004883E-001
 -1.785836E+002,  9.738311E+001,  0.000000E+000,  1.872937E+001, -1.049782E+000,  9.664182E+000,  3.004883E-001
  1.776118E+002, -1.017307E+002,  0.000000E+000, -7.419673E+000,  4.421807E+000, -9.379894E+000,  3.000994E-001
 -1.776118E+002,  1.017307E+002,  0.000000E+000,  7.419673E+000, -4.421807E+000,  9.379894E+000,  3.000994E-001
  1.785019E+002, -1.009276E+002,  0.000000E+000, -1.850289E-001,  7.368484E+000, -7.076430E+000,  3.006513E-001
 -1.785019E+002,  1.009276E+002,  0.000000E+000,  1.850289E-001, -7.368484E+000,  7.076430E+000,  3.006513E-001
  1.810649E+002, -9.702727E+001,  0.000000E+000,  5.007238E+000,  9.691566E+000, -3.670120E+000,  3.002117E-001
 -1.810649E+002,  9.702727E+001,  0.000000E+000, -5.007238E+000, -9.691566E+000,  3.670120E+000,  3.002117E-001
  1.814411E+002, -9.329500E+001,  0.000000E+000,  1.091946E+001,  9.712282E+000, -1.286475E+000,  3.006282E-001
 -1.814411E+002,  9.329500E+001,  0.000000E+000, -1.091946E+001, -9.712282E+000,  1.286475E+000,  3.006282E-001
  1.783401E+002, -9.181360E+001,  0.000000E+000,  1.607320E+001,  7.321725E+000, -9.231221E-001,  3.002443E-001
 -1.783401E+002,  9.181360E+001,  0.000000E+000, -1.607320E+001, -7.321725E+000,  9.231221E-001,  3.002443E-001
  1.738058E+002, -9.173366E+001,  0.000000E+000,  2.018472E+001,  4.601627E+000, -1.447560E+000,  3.001995E-001
 -1.738058E+002,  9.173366E+001,  0.000000E+000, -2.018472E+001, -4.601627E+000,  1.447560E+000,  3.001995E-001
  1.681321E+002, -9.175667E+001,  0.000000E+000,  2.418930E+001,  1.781823E+000, -2.356688E+000,  3.001068E-001
 -1.681321E+002,  9.175667E+001,  0.000000E+000, -2.418930E+001, -1.781823E+000,  2.356688E+000,  3.001068E-001
  1.616639E+002, -9.160572E+001,  0.000000E+000,  2.790716E+001, -7.506207E-001, -3.416071E+000,  3.003469E-001
 -1.616639E+002,  9.160572E+001,  0.000000E+000, -2.790716E+001,  7.506207E-001,  3.416071E+000,  3.003469E-001
  1.542276E+002, -9.047999E+001,  0.000000E+000,  3.184336E+001, -2.612466E+000, -4.307967E+000,  3.000807E-001
 -1.542276E+002,  9.047999E+001,  0.000000E+000, -3.184336E+001,  2.612466E+000,  4.307967E+000,  3.000807E-001
  1.452299E+002, -8.638094E+001,  0.000000E+000,  3.686334E+001, -3.291825E+000, -5.181509E+000,  3.002515E-001
 -1.452299E+002,  8.638094E+001,  0.000000E+000, -3.686334E+001,  3.291825E+000,  5.181509E+000,  3.002515E-001
  1.355628E+002, -8.024900E+001,  0.000000E+000,  4.236522E+001, -3.206216E+000, -6.207887E+000,  3.002046E-001
 -1.355628E+002,  8.024900E+001,  0.000000E+000, -4.236522E+001,  3.206216E+000,  6.207887E+000,  3.002046E-001
  1.700231E+002, -6.817391E+001,  0.000000E+000, -7.319460E+001, -2.949320E+000,  1.245643E+000,  3.003486E-001
 -1.700231E+002,  6.817391E+001,  0.000000E+000,  7.319460E+001,  2.949320E+000, -1.245643E+000,  3.003486E-001
  1.732127E+002, -6.870375E+001,  0.000000E+000, -7.186184E+001, -4.135112E+000,  2.536595E-001,  3.001202E-001
 -1.732127E+002,  6.870375E+001,  0.000000E+000,  7.186184E+001,  4.135112E+000, -2.536595E-001,  3.001202E-001
  1.763363E+002, -6.875297E+001,  0.000000E+000, -7.056035E+001, -5.500297E+000, -1.049068E+000,  3.005389E-001
 -1.763363E+002,  6.875297E+001,  0.000000E+000,  7.056035E+001,  5.500297E+000,  1.049068E+000,  3.005389E-001
  1.797518E+002, -6.913432E+001,  0.000000E+000, -6.838049E+001, -6.985847E+000, -2.489910E+000,  3.004593E-001
 -1.797518E+002,  6.913432E+001,  0.000000E+000,  6.838049E+001,  6.985847E+000,  2.489910E+000,  3.004593E-001
  1.833220E+002, -7.006475E+001,  0.000000E+000, -6.439019E+001, -8.230081E+000, -3.829466E+000,  3.003471E-001
 -1.833220E+002,  7.006475E+001,  0.000000E+000,  6.439019E+001,  8.230081E+000,  3.829466E+000,  3.003471E-001
  1.873113E+002, -7.143506E+001,  0.000000E+000, -5.612660E+001, -7.850953E+000, -4.866310E+000,  3.002269E-001
 -1.873113E+002,  7.143506E+001,  0.000000E+000,  5.612660E+001,  7.850953E+000,  4.866310E+000,  3.002269E-001
  1.908725E+002, -7.341823E+001,  0.000000E+000, -4.461553E+001, -5.996410E+000, -5.707899E+000,  3.004650E-001
 -1.908725E+002,  7.341823E+001,  0.000000E+000,  4.461553E+001,  5.996410E+000,  5.707899E+000,  3.004650E-001
  1.912261E+002, -7.750055E+001,  0.000000E+000, -3.310228E+001, -2.834897E+000, -5.973726E+000,  3.004853E-001
 -1.912261E+002,  7.750055E+001,  0.000000E+000,  3.310228E+001,  2.834897E+000,  5.973726E+000,  3.004853E-001
  1.899048E+002, -8.279164E+001,  0.000000E+000, -2.135245E+001,  9.094740E-001, -5.876876E+000,  3.006325E-001
 -1.899048E+002,  8.279164E+001,  0.000000E+000,  2.135245E+001, -9.094740E-001,  5.876876E+000,  3.006325E-001
  1.873502E+002, -8.894652E+001,  0.000000E+000, -9.313884E+000,  4.790352E+000, -5.585073E+000,  3.005504E-001
 -1.873502E+002,  8.894652E+001,  0.000000E+000,  9.313884E+000, -4.790352E+000,  5.585073E+000,  3.005504E-001
  1.859762E+002, -9.203528E+001,  0.000000E+000,  1.165955E+000,  8.490947E+000, -4.528335E+000,  3.006172E-001
 -1.859762E+002,  9.203528E+001,  0.000000E+000, -1.165955E+000, -8.490947E+000,  4.528335E+000,  3.006172E-001
  1.883758E+002, -8.861220E+001,  0.000000E+000,  7.095113E+000,  1.107602E+001, -1.220764E+000,  3.001987E-001
 -1.883758E+002,  8.861220E+001,  0.000000E+000, -7.095113E+000, -1.107602E+001,  1.220764E+000,  3.001987E-001
  1.885062E+002, -8.522641E+001,  0.000000E+000,  1.270296E+001,  1.066980E+001,  6.786732E-001,  3.004513E-001
 -1.885062E+002,  8.522641E+001,  0.000000E+000, -1.270296E+001, -1.066980E+001, -6.786732E-001,  3.004513E-001
  1.853128E+002, -8.409179E+001,  0.000000E+000,  1.715682E+001,  7.875448E+000,  4.001666E-001,  3.003752E-001
 -1.853128E+002,  8.409179E+001,  0.000000E+000, -1.715682E+001, -7.875448E+000, -4.001666E-001,  3.003752E-001
  1.814014E+002, -8.330262E+001,  0.000000E+000,  2.099216E+001,  4.726684E+000, -5.071086E-001,  3.000456E-001
 -1.814014E+002,  8.330262E+001,  0.000000E+000, -2.099216E+001, -4.726684E+000,  5.071086E-001,  3.000456E-001
  1.768456E+002, -8.177535E+001,  0.000000E+000,  2.499971E+001,  1.511392E+000, -1.523577E+000,  3.002297E-001
 -1.768456E+002,  8.177535E+001,  0.000000E+000, -2.499971E+001, -1.511392E+000,  1.523577E+000,  3.002297E-001
  1.715619E+002, -7.950132E+001,  0.000000E+000,  2.888789E+001, -1.183487E+000, -2.495933E+000,  3.004786E-001
 -1.715619E+002,  7.950132E+001,  0.000000E+000, -2.888789E+001,  1.183487E+000,  2.495933E+000,  3.004786E-001
  1.647753E+002, -7.399328E+001,  0.000000E+000,  3.397111E+001, -2.775489E+000, -3.353445E+000,  3.000129E-001
 -1.647753E+002,  7.399328E+001,  0.000000E+000, -3.397111E+001,  2.775489E+000,  3.353445E+000,  3.000129E-001
  1.562724E+002, -6.658165E+001,  0.000000E+000,  3.980223E+001, -3.387702E+000, -4.359246E+000,  3.003294E-001
 -1.562724E+002,  6.658165E+001,  0.000000E+000, -3.980223E+001,  3.387702E+000,  4.359246E+000,  3.003294E-001
  1.466879E+002, -6.030719E+001,  0.000000E+000,  4.535249E+001, -3.434688E+000, -5.453553E+000,  3.000077E-001
 -1.466879E+002,  6.030719E+001,  0.000000E+000, -4.535249E+001,  3.434688E+000,  5.453553E+000,  3.000077E-001
  1.833975E+002, -5.021061E+001,  0.000000E+000, -7.459903E+001, -4.252896E+000,  3.145726E+000,  3.004803E-001
 -1.833975E+002,  5.021061E+001,  0.000000E+000,  7.459903E+001,  4.252896E+000, -3.145726E+000,  3.004803E-001
  1.881463E+002, -5.140509E+001,  0.000000E+000, -7.275521E+001, -5.534442E+000,  2.624822E+000,  3.004060E-001
 -1.881463E+002,  5.140509E+001,  0.000000E+000,  7.275521E+001,  5.534442E+000, -2.624822E+000,  3.004060E-001
  1.918826E+002, -5.125715E+001,  0.000000E+000, -7.136181E+001, -6.919219E+000,  1.472094E+000,  3.006280E-001
 -1.918826E+002,  5.125715E+001,  0.000000E+000,  7.136181E+001,  6.919219E+000, -1.472094E+000,  3.006280E-001
  1.957073E+002, -5.091476E+001,  0.000000E+000, -6.962625E+001, -8.489306E+000,  7.607500E-002,  3.002628E-001
 -1.957073E+002,  5.091476E+001,  0.000000E+000,  6.962625E+001,  8.489306E+000, -7.607500E-002,  3.002628E-001
  1.998343E+002, -5.115645E+001,  0.000000E+000, -6.628058E+001, -1.005271E+001, -1.324682E+000,  3.001943E-001
 -1.998343E+002,  5.115645E+001,  0.000000E+000,  6.628058E+001,  1.005271E+001,  1.324682E+000,  3.001943E-001
  2.030869E+002, -5.311589E+001,  0.000000E+000, -5.910854E+001, -9.952290E+000, -2.150945E+000,  3.001235E-001
 -2.030869E+002,  5.311589E+001,  0.000000E+000,  5.910854E+001,  9.952290E+000,  2.150945E+000,  3.001235E-001
  2.032510E+002, -5.749310E+001,  0.000000E+000, -4.806311E+001, -6.804453E+000, -2.135728E+000,  3.006350E-001
 -2.032510E+002,  5.749310E+001,  0.000000E+000,  4.806311E+001,  6.804453E+000,  2.135728E+000,  3.006350E-001
  2.018041E+002, -6.294053E+001,  0.000000E+000, -3.650436E+001, -2.984498E+000, -1.867057E+000,  3.003732E-001
 -2.018041E+002,  6.294053E+001,  0.000000E+000,  3.650436E+001,  2.984498E+000,  1.867057E+000,  3.003732E-001
  1.992458E+002, -6.933169E+001,  0.000000E+000, -2.468611E+001,  1.064753E+000, -1.473396E+000,  3.000439E-001
 -1.992458E+002,  6.933169E+001,  0.000000E+000,  2.468611E+001, -1.064753E+000,  1.473396E+000,  3.000439E-001
  1.964084E+002, -7.577072E+001,  0.000000E+000, -1.203891E+001,  5.162540E+000, -1.027446E+000,  3.002415E-001
 -1.964084E+002,  7.577072E+001,  0.000000E+000,  1.203891E+001, -5.162540E+000,  1.027446E+000,  3.002415E-001
  1.935331E+002, -8.167651E+001,  0.000000E+000,  6.648925E-001,  9.273691E+000, -5.282861E-001,  3.002045E-001
 -1.935331E+002,  8.167651E+001,  0.000000E+000, -6.648925E-001, -9.273691E+000,  5.282861E-001,  3.002045E-001
  1.929246E+002, -8.277952E+001,  0.000000E+000,  8.918292E+000,  1.236965E+001,  8.721236E-001,  3.002793E-001
 -1.929246E+002,  8.277952E+001,  0.000000E+000, -8.918292E+000, -1.236965E+001, -8.721236E-001,  3.002793E-001
  1.920581E+002, -8.107282E+001,  0.000000E+000,  1.350735E+001,  1.144901E+001,  1.717609E+000,  3.003379E-001
 -1.920581E+002,  8.107282E+001,  0.000000E+000, -1.350735E+001, -1.144901E+001, -1.717609E+000,  3.003379E-001
  1.886112E+002, -8.024453E+001,  0.000000E+000,  1.759204E+001,  8.241986E+000,  9.742203E-001,  3.000240E-001
 -1.886112E+002,  8.024453E+001,  0.000000E+000, -1.759204E+001, -8.241986E+000, -9.742203E-001,  3.000240E-001
  1.841929E+002, -7.884497E+001,  0.000000E+000,  2.185073E+001,  4.752939E+000, -8.038323E-002,  3.004526E-001
 -1.841929E+002,  7.884497E+001,  0.000000E+000, -2.185073E+001, -4.752939E+000,  8.038323E-002,  3.004526E-001
  1.792691E+002, -7.592807E+001,  0.000000E+000,  2.642356E+001,  1.643863E+000, -9.941239E-001,  3.004594E-001
 -1.792691E+002,  7.592807E+001,  0.000000E+000, -2.642356E+001, -1.643863E+000,  9.941239E-001,  3.004594E-001
  1.738028E+002, -6.848942E+001,  0.000000E+000,  3.184375E+001, -1.689848E-001, -1.859062E+000,  3.004220E-001
 -1.738028E+002,  6.848942E+001,  0.000000E+000, -3.184375E+001,  1.689848E-001,  1.859062E+000,  3.004220E-001
  1.680140E+002, -5.817993E+001,  0.000000E+000,  3.789060E+001, -1.234619E+000, -2.873325E+000,  3.002999E-001
 -1.680140E+002,  5.817993E+001,  0.000000E+000, -3.789060E+001,  1.234619E+000,  2.873325E+000,  3.002999E-001
  1.619133E+002, -4.889219E+001,  0.000000E+000,  4.353494E+001, -2.148220E+000, -3.911170E+000,  3.002810E-001
 -1.619133E+002,  4.889219E+001,  0.000000E+000, -4.353494E+001,  2.148220E+000,  3.911170E+000,  3.002810E-001
  1.550985E+002, -4.119697E+001,  0.000000E+000,  4.875953E+001, -2.873629E+000, -4.906128E+000,  3.004064E-001
 -1.550985E+002,  4.119697E+001,  0.000000E+000, -4.875953E+001,  2.873629E+000,  4.906128E+000,  3.004064E-001
  1.956979E+002, -2.980752E+001,  0.000000E+000, -7.675791E+001, -5.528913E+000,  4.525780E+000,  3.001362E-001
 -1.956979E+002,  2.980752E+001,  0.000000E+000,  7.675791E+001,  5.528913E+000, -4.525780E+000,  3.001362E-001
  2.024652E+002, -3.215390E+001,  0.000000E+000, -7.424406E+001, -6.914344E+000,  4.817438E+000,  3.000154E-001
 -2.024652E+002,  3.215390E+001,  0.000000E+000,  7.424406E+001,  6.914344E+000, -4.817438E+000,  3.000154E-001
  2.079542E+002, -3.260483E+001,  0.000000E+000, -7.231069E+001, -8.373464E+000,  4.233349E+000,  3.006250E-001
 -2.079542E+002,  3.260483E+001,  0.000000E+000,  7.231069E+001,  8.373464E+000, -4.233349E+000,  3.006250E-001
  2.115642E+002, -3.223725E+001,  0.000000E+000, -7.069904E+001, -9.590579E+000,  3.192205E+000,  3.000576E-001
 -2.115642E+002,  3.223725E+001,  0.000000E+000,  7.069904E+001,  9.590579E+000, -3.192205E+000,  3.000576E-001
  2.139828E+002, -3.303971E+001,  0.000000E+000, -6.821117E+001, -1.044315E+001,  2.263256E+000,  3.003563E-001
 -2.139828E+002,  3.303971E+001,  0.000000E+000,  6.821117E+001,  1.044315E+001, -2.263256E+000,  3.003563E-001
  2.149717E+002, -3.638621E+001,  0.000000E+000, -6.292889E+001, -1.016814E+001,  1.853236E+000,  3.001778E-001
 -2.149717E+002,  3.638621E+001,  0.000000E+000,  6.292889E+001,  1.016814E+001, -1.853236E+000,  3.001778E-001
  2.134806E+002, -4.262410E+001,  0.000000E+000, -5.243209E+001, -6.994170E+000,  2.156446E+000,  3.004727E-001
 -2.134806E+002,  4.262410E+001,  0.000000E+000,  5.243209E+001,  6.994170E+000, -2.156446E+000,  3.004727E-001
  2.110604E+002, -4.900213E+001,  0.000000E+000, -4.058771E+001, -2.896849E+000,  2.715342E+000,  3.001676E-001
 -2.110604E+002,  4.900213E+001,  0.000000E+000,  4.058771E+001,  2.896849E+000, -2.715342E+000,  3.001676E-001
  2.083669E+002, -5.555817E+001,  0.000000E+000, -2.834270E+001,  1.347913E+000,  3.408180E+000,  3.004282E-001
 -2.083669E+002,  5.555817E+001,  0.000000E+000,  2.834270E+001, -1.347913E+000, -3.408180E+000,  3.004282E-001
  2.056073E+002, -6.193888E+001,  0.000000E+000, -1.509074E+001,  5.576368E+000,  4.007016E+000,  3.004447E-001
 -2.056073E+002,  6.193888E+001,  0.000000E+000,  1.509074E+001, -5.576368E+000, -4.007016E+000,  3.004447E-001
  2.015800E+002, -6.967652E+001,  0.000000E+000, -1.911809E+000,  9.458385E+000,  3.825519E+000,  3.005485E-001
 -2.015800E+002,  6.967652E+001,  0.000000E+000,  1.911809E+000, -9.458385E+000, -3.825519E+000,  3.005485E-001
  1.969660E+002, -7.714767E+001,  0.000000E+000,  8.981813E+000,  1.262023E+001,  2.645889E+000,  3.001668E-001
 -1.969660E+002,  7.714767E+001,  0.000000E+000, -8.981813E+000, -1.262023E+001, -2.645889E+000,  3.001668E-001
  1.950939E+002, -7.745651E+001,  0.000000E+000,  1.400511E+001,  1.218538E+001,  2.408002E+000,  3.004501E-001
 -1.950939E+002,  7.745651E+001,  0.000000E+000, -1.400511E+001, -1.218538E+001, -2.408002E+000,  3.004501E-001
  1.911444E+002, -7.625024E+001,  0.000000E+000,  1.834715E+001,  8.460489E+000,  1.432441E+000,  3.002533E-001
 -1.911444E+002,  7.625024E+001,  0.000000E+000, -1.834715E+001, -8.460489E+000, -1.432441E+000,  3.002533E-001
  1.862734E+002, -7.304339E+001,  0.000000E+000,  2.342784E+001,  4.874424E+000,  5.765824E-001,  3.001095E-001
 -1.862734E+002,  7.304339E+001,  0.000000E+000, -2.342784E+001, -4.874424E+000, -5.765824E-001,  3.001095E-001
  1.803134E+002, -6.451869E+001,  0.000000E+000,  2.990358E+001,  2.805794E+000, -2.780838E-001,  3.002482E-001
 -1.803134E+002,  6.451869E+001,  0.000000E+000, -2.990358E+001, -2.805794E+000,  2.780838E-001,  3.002482E-001
  1.740936E+002, -5.341664E+001,  0.000000E+000,  3.644893E+001,  1.617380E+000, -1.471091E+000,  3.000191E-001
 -1.740936E+002,  5.341664E+001,  0.000000E+000, -3.644893E+001, -1.617380E+000,  1.471091E+000,  3.000191E-001
  1.682243E+002, -4.313591E+001,  0.000000E+000,  4.248173E+001,  5.472362E-001, -2.606369E+000,  3.001515E-001
 -1.682243E+002,  4.313591E+001,  0.000000E+000, -4.248173E+001, -5.472362E-001,  2.606369E+000,  3.001515E-001
  1.628572E+002, -3.377116E+001,  0.000000E+000,  4.791877E+001, -3.839487E-001, -3.683169E+000,  3.004583E-001
 -1.628572E+002,  3.377116E+001,  0.000000E+000, -4.791877E+001,  3.839487E-001,  3.683169E+000,  3.004583E-001
  1.577703E+002, -2.520712E+001,  0.000000E+000,  5.286325E+001, -1.243292E+000, -4.704535E+000,  3.005027E-001
 -1.577703E+002,  2.520712E+001,  0.000000E+000, -5.286325E+001,  1.243292E+000,  4.704535E+000,  3.005027E-001
  2.071587E+002, -8.029725E+000,  0.000000E+000, -7.928740E+001, -7.017461E+000,  5.016437E+000,  3.004220E-001
 -2.071587E+002,  8.029725E+000,  0.000000E+000,  7.928740E+001,  7.017461E+000, -5.016437E+000,  3.004220E-001
  2.158007E+002, -1.020755E+001,  0.000000E+000, -7.651360E+001, -8.327004E+000,  6.493453E+000,  3.004895E-001
 -2.158007E+002,  1.020755E+001,  0.000000E+000,  7.651360E+001,  8.327004E+000, -6.493453E+000,  3.004895E-001
  2.208132E+002, -1.330876E+001,  0.000000E+000, -7.408784E+001, -8.866880E+000,  7.367376E+000,  3.002540E-001
 -2.208132E+002,  1.330876E+001,  0.000000E+000,  7.408784E+001,  8.866880E+000, -7.367376E+000,  3.002540E-001
  2.232990E+002, -1.562378E+001,  0.000000E+000, -7.212460E+001, -8.960522E+000,  7.570778E+000,  3.001617E-001
 -2.232990E+002,  1.562378E+001,  0.000000E+000,  7.212460E+001,  8.960522E+000, -7.570778E+000,  3.001617E-001
  2.246600E+002, -1.716638E+001,  0.000000E+000, -7.026608E+001, -9.296429E+000,  7.017787E+000,  3.003446E-001
 -2.246600E+002,  1.716638E+001,  0.000000E+000,  7.026608E+001,  9.296429E+000, -7.017787E+000,  3.003446E-001
  2.246733E+002, -2.065922E+001,  0.000000E+000, -6.681525E+001, -9.490279E+000,  6.588296E+000,  3.005185E-001
 -2.246733E+002,  2.065922E+001,  0.000000E+000,  6.681525E+001,  9.490279E+000, -6.588296E+000,  3.005185E-001
  2.231610E+002, -2.713064E+001,  0.000000E+000, -5.760189E+001, -6.893328E+000,  7.014472E+000,  3.001381E-001
 -2.231610E+002,  2.713064E+001,  0.000000E+000,  5.760189E+001,  6.893328E+000, -7.014472E+000,  3.001381E-001
  2.206305E+002, -3.422934E+001,  0.000000E+000, -4.518256E+001, -2.680449E+000,  7.822848E+000,  3.005644E-001
 -2.206305E+002,  3.422934E+001,  0.000000E+000,  4.518256E+001,  2.680449E+000, -7.822848E+000,  3.005644E-001
  2.179132E+002, -4.082921E+001,  0.000000E+000, -3.217121E+001,  1.655279E+000,  8.572467E+000,  3.002110E-001
 -2.179132E+002,  4.082921E+001,  0.000000E+000,  3.217121E+001, -1.655279E+000, -8.572467E+000,  3.002110E-001
  2.142241E+002, -4.842415E+001,  0.000000E+000, -1.881356E+001,  5.578661E+000,  8.507925E+000,  3.004816E-001
 -2.142241E+002,  4.842415E+001,  0.000000E+000,  1.881356E+001, -5.578661E+000, -8.507925E+000,  3.004816E-001
  2.086808E+002, -5.831169E+001,  0.000000E+000, -5.919083E+000,  8.901008E+000,  7.121179E+000,  3.004439E-001
 -2.086808E+002,  5.831169E+001,  0.000000E+000,  5.919083E+000, -8.901008E+000, -7.121179E+000,  3.004439E-001
  2.019808E+002, -6.943350E+001,  0.000000E+000,  6.720899E+000,  1.188058E+001,  4.876027E+000,  3.006322E-001
 -2.019808E+002,  6.943350E+001,  0.000000E+000, -6.720899E+000, -1.188058E+001, -4.876027E+000,  3.006322E-001
  1.976896E+002, -7.370412E+001,  0.000000E+000,  1.459755E+001,  1.256336E+001,  3.143403E+000,  3.004444E-001
 -1.976896E+002,  7.370412E+001,  0.000000E+000, -1.459755E+001, -1.256336E+001, -3.143403E+000,  3.004444E-001
  1.930106E+002, -7.033856E+001,  0.000000E+000,  2.007437E+001,  8.832611E+000,  2.132132E+000,  3.002579E-001
 -1.930106E+002,  7.033856E+001,  0.000000E+000, -2.007437E+001, -8.832611E+000, -2.132132E+000,  3.002579E-001
  1.866848E+002, -6.006292E+001,  0.000000E+000,  2.763339E+001,  6.431421E+000,  1.212325E+000,  3.000846E-001
 -1.866848E+002,  6.006292E+001,  0.000000E+000, -2.763339E+001, -6.431421E+000, -1.212325E+000,  3.000846E-001
  1.802367E+002, -4.823490E+001,  0.000000E+000,  3.487207E+001,  4.802226E+000,  6.738953E-002,  3.000285E-001
 -1.802367E+002,  4.823490E+001,  0.000000E+000, -3.487207E+001, -4.802226E+000, -6.738953E-002,  3.000285E-001
  1.741242E+002, -3.731846E+001,  0.000000E+000,  4.134644E+001,  3.544523E+000, -1.168780E+000,  3.000772E-001
 -1.741242E+002,  3.731846E+001,  0.000000E+000, -4.134644E+001, -3.544523E+000,  1.168780E+000,  3.000772E-001
  1.682673E+002, -2.765062E+001,  0.000000E+000,  4.719495E+001,  2.443328E+000, -2.387862E+000,  3.003968E-001
 -1.682673E+002,  2.765062E+001,  0.000000E+000, -4.719495E+001, -2.443328E+000,  2.387862E+000,  3.003968E-001
  1.627290E+002, -1.879852E+001,  0.000000E+000,  5.254693E+001,  1.426971E+000, -3.543672E+000,  3.002180E-001
 -1.627290E+002,  1.879852E+001,  0.000000E+000, -5.254693E+001, -1.426971E+000,  3.543672E+000,  3.002180E-001
  1.575377E+002, -1.057006E+001,  0.000000E+000,  5.743693E+001,  4.565742E-001, -4.522756E+000,  3.003562E-001
 -1.575377E+002,  1.057006E+001,  0.000000E+000, -5.743693E+001, -4.565742E-001,  4.522756E+000,  3.003562E-001
  2.174601E+002,  1.160064E+001,  0.000000E+000, -8.148881E+001, -9.065416E+000,  4.431998E+000,  3.000737E-001
 -2.174601E+002, -1.160064E+001,  0.000000E+000,  8.148881E+001,  9.065416E+000, -4.431998E+000,  3.000737E-001
  2.231776E+002,  9.815466E+000,  0.000000E+000, -7.944691E+001, -8.792778E+000,  7.253427E+000,  3.001561E-001
 -2.231776E+002, -9.815466E+000,  0.000000E+000,  7.944691E+001,  8.792778E+000, -7.253427E+000,  3.001561E-001
  2.277007E+002,  5.896532E+000,  0.000000E+000, -7.713685E+001, -8.372410E+000,  9.994396E+000,  3.002139E-001
 -2.277007E+002, -5.896532E+000,  0.000000E+000,  7.713685E+001,  8.372410E+000, -9.994396E+000,  3.002139E-001
  2.309535E+002,  6.827612E-001,  0.000000E+000, -7.443355E+001, -8.044441E+000,  1.172873E+001,  3.000506E-001
 -2.309535E+002, -6.827612E-001,  0.000000E+000,  7.443355E+001,  8.044441E+000, -1.172873E+001,  3.000506E-001
  2.329579E+002, -2.672612E+000,  0.000000E+000, -7.220724E+001, -7.938607E+000,  1.230656E+001,  3.006023E-001
 -2.329579E+002,  2.672612E+000,  0.000000E+000,  7.220724E+001,  7.938607E+000, -1.230656E+001,  3.006023E-001
  2.338347E+002, -5.132232E+000,  0.000000E+000, -6.995365E+001, -8.141442E+000,  1.206557E+001,  3.003800E-001
 -2.338347E+002,  5.132232E+000,  0.000000E+000,  6.995365E+001,  8.141442E+000, -1.206557E+001,  3.003800E-001
  2.330805E+002, -1.040051E+001,  0.000000E+000, -6.319210E+001, -6.591018E+000,  1.243065E+001,  3.002711E-001
 -2.330805E+002,  1.040051E+001,  0.000000E+000,  6.319210E+001,  6.591018E+000, -1.243065E+001,  3.002711E-001
  2.305986E+002, -1.798882E+001,  0.000000E+000, -5.032256E+001, -2.357063E+000,  1.314094E+001,  3.001210E-001
 -2.305986E+002,  1.798882E+001,  0.000000E+000,  5.032256E+001,  2.357063E+000, -1.314094E+001,  3.001210E-001
  2.267252E+002, -2.650343E+001,  0.000000E+000, -3.694317E+001,  1.455188E+000,  1.283086E+001,  3.003149E-001
 -2.267252E+002,  2.650343E+001,  0.000000E+000,  3.694317E+001, -1.455188E+000, -1.283086E+001,  3.003149E-001
  2.213520E+002, -3.649312E+001,  0.000000E+000, -2.374202E+001,  4.743166E+000,  1.143046E+001,  3.005626E-001
 -2.213520E+002,  3.649312E+001,  0.000000E+000,  2.374202E+001, -4.743166E+000, -1.143046E+001,  3.005626E-001
  2.147976E+002, -4.784184E+001,  0.000000E+000, -1.085115E+001,  7.721832E+000,  9.329488E+000,  3.002319E-001
 -2.147976E+002,  4.784184E+001,  0.000000E+000,  1.085115E+001, -7.721832E+000, -9.329488E+000,  3.002319E-001
  2.077176E+002, -5.924326E+001,  0.000000E+000,  2.500993E+000,  1.051139E+001,  6.930207E+000,  3.005851E-001
 -2.077176E+002,  5.924326E+001,  0.000000E+000, -2.500993E+000, -1.051139E+001, -6.930207E+000,  3.005851E-001
  2.001679E+002, -6.614329E+001,  0.000000E+000,  1.567384E+001,  1.244113E+001,  4.525941E+000,  3.004722E-001
 -2.001679E+002,  6.614329E+001,  0.000000E+000, -1.567384E+001, -1.244113E+001, -4.525941E+000,  3.004722E-001
  1.929603E+002, -5.545030E+001,  0.000000E+000,  2.499240E+001,  1.067080E+001,  2.989041E+000,  3.003014E-001
 -1.929603E+002,  5.545030E+001,  0.000000E+000, -2.499240E+001, -1.067080E+001, -2.989041E+000,  3.003014E-001
  1.861008E+002, -4.278912E+001,  0.000000E+000,  3.305234E+001,  8.691073E+000,  1.610700E+000,  3.000434E-001
 -1.861008E+002,  4.278912E+001,  0.000000E+000, -3.305234E+001, -8.691073E+000, -1.610700E+000,  3.000434E-001
  1.794539E+002, -3.140020E+001,  0.000000E+000,  4.012660E+001,  7.029001E+000,  3.060194E-001,  3.004865E-001
 -1.794539E+002,  3.140020E+001,  0.000000E+000, -4.012660E+001, -7.029001E+000, -3.060194E-001,  3.004865E-001
  1.733196E+002, -2.109466E+001,  0.000000E+000,  4.643648E+001,  5.606036E+000, -9.827819E-001,  3.004706E-001
 -1.733196E+002,  2.109466E+001,  0.000000E+000, -4.643648E+001, -5.606036E+000,  9.827819E-001,  3.004706E-001
  1.675717E+002, -1.167863E+001,  0.000000E+000,  5.214067E+001,  4.362681E+000, -2.202439E+000,  3.003570E-001
 -1.675717E+002,  1.167863E+001,  0.000000E+000, -5.214067E+001, -4.362681E+000,  2.202439E+000,  3.003570E-001
  1.621237E+002, -3.131937E+000,  0.000000E+000,  5.734950E+001,  3.198392E+000, -3.238688E+000,  3.003589E-001
 -1.621237E+002,  3.131937E+000,  0.000000E+000, -5.734950E+001, -3.198392E+000,  3.238688E+000,  3.003589E-001
  1.568937E+002,  4.736860E+000,  0.000000E+000,  6.213016E+001,  2.155430E+000, -4.120195E+000,  3.003437E-001
 -1.568937E+002, -4.736860E+000,  0.000000E+000, -6.213016E+001, -2.155430E+000,  4.120195E+000,  3.003437E-001
  2.185747E+002,  2.465901E+001,  0.000000E+000, -8.400039E+001, -9.262380E+000,  3.969712E+000,  3.000542E-001
 -2.185747E+002, -2.465901E+001,  0.000000E+000,  8.400039E+001,  9.262380E+000, -3.969712E+000,  3.000542E-001
  2.234953E+002,  2.238718E+001,  0.000000E+000, -8.204541E+001, -8.800053E+000,  6.856340E+000,  3.000297E-001
 -2.234953E+002, -2.238718E+001,  0.000000E+000,  8.204541E+001,  8.800053E+000, -6.856340E+000,  3.000297E-001
  2.286687E+002,  1.998214E+001,  0.000000E+000, -7.986654E+001, -8.312333E+000,  1.007201E+001,  3.001518E-001
 -2.286687E+002, -1.998214E+001,  0.000000E+000,  7.986654E+001,  8.312333E+000, -1.007201E+001,  3.001518E-001
  2.340082E+002,  1.701686E+001,  0.000000E+000, -7.737829E+001, -7.736770E+000,  1.352399E+001,  3.002549E-001
 -2.340082E+002, -1.701686E+001,  0.000000E+000,  7.737829E+001,  7.736770E+000, -1.352399E+001,  3.002549E-001
  2.385907E+002,  1.280730E+001,  0.000000E+000, -7.460111E+001, -7.111559E+000,  1.641164E+001,  3.001272E-001
 -2.385907E+002, -1.280730E+001,  0.000000E+000,  7.460111E+001,  7.111559E+000, -1.641164E+001,  3.001272E-001
  2.414785E+002,  9.574552E+000,  0.000000E+000, -7.202959E+001, -6.739593E+000,  1.769312E+001,  3.001346E-001
 -2.414785E+002, -9.574552E+000,  0.000000E+000,  7.202959E+001,  6.739593E+000, -1.769312E+001,  3.001346E-001
  2.425303E+002,  6.654999E+000,  0.000000E+000, -6.846288E+001, -6.206985E+000,  1.799254E+001,  3.004449E-001
 -2.425303E+002, -6.654999E+000,  0.000000E+000,  6.846288E+001,  6.206985E+000, -1.799254E+001,  3.004449E-001
  2.392275E+002, -2.063397E+000,  0.000000E+000, -5.644171E+001, -2.928127E+000,  1.722361E+001,  3.002564E-001
 -2.392275E+002,  2.063397E+000,  0.000000E+000,  5.644171E+001,  2.928127E+000, -1.722361E+001,  3.002564E-001
  2.339600E+002, -1.285120E+001,  0.000000E+000, -4.315268E+001,  3.947200E-001,  1.557931E+001,  3.001831E-001
 -2.339600E+002,  1.285120E+001,  0.000000E+000,  4.315268E+001, -3.947200E-001, -1.557931E+001,  3.001831E-001
  2.276575E+002, -2.425359E+001,  0.000000E+000, -2.971136E+001,  3.568770E+000,  1.367663E+001,  3.004104E-001
 -2.276575E+002,  2.425359E+001,  0.000000E+000,  2.971136E+001, -3.568770E+000, -1.367663E+001,  3.004104E-001
  2.207988E+002, -3.279914E+001,  0.000000E+000, -1.537359E+001,  6.982033E+000,  1.187255E+001,  3.004021E-001
 -2.207988E+002,  3.279914E+001,  0.000000E+000,  1.537359E+001, -6.982033E+000, -1.187255E+001,  3.004021E-001
  2.129616E+002, -3.600040E+001,  0.000000E+000,  3.796189E-002,  1.042281E+001,  9.452101E+000,  3.001978E-001
 -2.129616E+002,  3.600040E+001,  0.000000E+000, -3.796189E-002, -1.042281E+001, -9.452101E+000,  3.001978E-001
  2.028534E+002, -3.727524E+001,  0.000000E+000,  1.600907E+001,  1.209054E+001,  6.472817E+000,  3.002165E-001
 -2.028534E+002,  3.727524E+001,  0.000000E+000, -1.600907E+001, -1.209054E+001, -6.472817E+000,  3.002165E-001
  1.923731E+002, -3.591165E+001,  0.000000E+000,  3.030042E+001,  1.272395E+001,  3.658219E+000,  3.001263E-001
 -1.923731E+002,  3.591165E+001,  0.000000E+000, -3.030042E+001, -1.272395E+001, -3.658219E+000,  3.001263E-001
  1.845450E+002, -2.520454E+001,  0.000000E+000,  3.854246E+001,  1.101629E+001,  2.016186E+000,  3.004701E-001
 -1.845450E+002,  2.520454E+001,  0.000000E+000, -3.854246E+001, -1.101629E+001, -2.016186E+000,  3.004701E-001
  1.777705E+002, -1.453119E+001,  0.000000E+000,  4.545362E+001,  9.234068E+000,  6.018148E-001,  3.001082E-001
 -1.777705E+002,  1.453119E+001,  0.000000E+000, -4.545362E+001, -9.234068E+000, -6.018148E-001,  3.001082E-001
  1.715683E+002, -4.757759E+000,  0.000000E+000,  5.165358E+001,  7.666322E+000, -6.948561E-001,  3.002383E-001
 -1.715683E+002,  4.757759E+000,  0.000000E+000, -5.165358E+001, -7.666322E+000,  6.948561E-001,  3.002383E-001
  1.658386E+002,  4.209758E+000,  0.000000E+000,  5.721918E+001,  6.295396E+000, -1.927898E+000,  3.000595E-001
 -1.658386E+002, -4.209758E+000,  0.000000E+000, -5.721918E+001, -6.295396E+000,  1.927898E+000,  3.000595E-001
  1.603670E+002,  1.238829E+001,  0.000000E+000,  6.229737E+001,  5.037811E+000, -2.902468E+000,  3.002244E-001
 -1.603670E+002, -1.238829E+001,  0.000000E+000, -6.229737E+001, -5.037811E+000,  2.902468E+000,  3.002244E-001
  1.553148E+002,  1.982069E+001,  0.000000E+000,  6.691055E+001,  3.891942E+000, -3.776793E+000,  3.004355E-001
 -1.553148E+002, -1.982069E+001,  0.000000E+000, -6.691055E+001, -3.891942E+000,  3.776793E+000,  3.004355E-001
  2.166954E+002,  3.428290E+001,  0.000000E+000, -8.562433E+001, -9.729095E+000,  2.252597E+000,  3.000099E-001
 -2.166954E+002, -3.428290E+001,  0.000000E+000,  8.562433E+001,  9.729095E+000, -2.252597E+000,  3.000099E-001
  2.214058E+002,  3.164103E+001,  0.000000E+000, -8.365633E+001, -9.331155E+000,  4.998426E+000,  3.004306E-001
 -2.214058E+002, -3.164103E+001,  0.000000E+000,  8.365633E+001,  9.331155E+000, -4.998426E+000,  3.004306E-001
  2.265334E+002,  2.876477E+001,  0.000000E+000, -8.146325E+001, -8.893611E+000,  8.020220E+000,  3.003948E-001
 -2.265334E+002, -2.876477E+001,  0.000000E+000,  8.146325E+001,  8.893611E+000, -8.020220E+000,  3.003948E-001
  2.320415E+002,  2.577456E+001,  0.000000E+000, -7.901345E+001, -8.381415E+000,  1.150724E+001,  3.005763E-001
 -2.320415E+002, -2.577456E+001,  0.000000E+000,  7.901345E+001,  8.381415E+000, -1.150724E+001,  3.005763E-001
  2.377626E+002,  2.257182E+001,  0.000000E+000, -7.631096E+001, -7.747870E+000,  1.531037E+001,  3.003837E-001
 -2.377626E+002, -2.257182E+001,  0.000000E+000,  7.631096E+001,  7.747870E+000, -1.531037E+001,  3.003837E-001
  2.430399E+002,  1.981884E+001,  0.000000E+000, -7.330495E+001, -6.905135E+000,  1.865835E+001,  3.001061E-001
 -2.430399E+002, -1.981884E+001,  0.000000E+000,  7.330495E+001,  6.905135E+000, -1.865835E+001,  3.001061E-001
  2.466522E+002,  1.868565E+001,  0.000000E+000, -7.010262E+001, -6.219681E+000,  2.026202E+001,  3.004654E-001
 -2.466522E+002, -1.868565E+001,  0.000000E+000,  7.010262E+001,  6.219681E+000, -2.026202E+001,  3.004654E-001
  2.462732E+002,  1.597351E+001,  0.000000E+000, -6.270894E+001, -3.559229E+000,  2.060205E+001,  3.002902E-001
 -2.462732E+002, -1.597351E+001,  0.000000E+000,  6.270894E+001,  3.559229E+000, -2.060205E+001,  3.002902E-001
  2.405270E+002,  1.041736E+001,  0.000000E+000, -4.787591E+001,  6.221912E-001,  1.867104E+001,  3.000683E-001
 -2.405270E+002, -1.041736E+001,  0.000000E+000,  4.787591E+001, -6.221912E-001, -1.867104E+001,  3.000683E-001
  2.335712E+002,  5.730933E+000,  0.000000E+000, -3.255992E+001,  4.785056E+000,  1.652945E+001,  3.004873E-001
 -2.335712E+002, -5.730933E+000,  0.000000E+000,  3.255992E+001, -4.785056E+000, -1.652945E+001,  3.004873E-001
  2.255998E+002,  2.099795E+000,  0.000000E+000, -1.673603E+001,  8.390329E+000,  1.409863E+001,  3.001446E-001
 -2.255998E+002, -2.099795E+000,  0.000000E+000,  1.673603E+001, -8.390329E+000, -1.409863E+001,  3.001446E-001
  2.160357E+002, -3.900442E-001,  0.000000E+000, -5.954649E-001,  1.047614E+001,  1.120441E+001,  3.004307E-001
 -2.160357E+002,  3.900442E-001,  0.000000E+000,  5.954649E-001, -1.047614E+001, -1.120441E+001,  3.004307E-001
  2.050077E+002, -2.529915E+000,  0.000000E+000,  1.546090E+001,  1.155370E+001,  8.117241E+000,  3.002671E-001
 -2.050077E+002,  2.529915E+000,  0.000000E+000, -1.546090E+001, -1.155370E+001, -8.117241E+000,  3.002671E-001
  1.938370E+002, -4.820109E+000,  0.000000E+000,  3.037557E+001,  1.248504E+001,  5.260928E+000,  3.001034E-001
 -1.938370E+002,  4.820109E+000,  0.000000E+000, -3.037557E+001, -1.248504E+001, -5.260928E+000,  3.001034E-001
  1.831303E+002, -5.512991E+000,  0.000000E+000,  4.360419E+001,  1.316941E+001,  2.492273E+000,  3.004338E-001
 -1.831303E+002,  5.512991E+000,  0.000000E+000, -4.360419E+001, -1.316941E+001, -2.492273E+000,  3.004338E-001
  1.757925E+002,  3.524128E+000,  0.000000E+000,  5.092898E+001,  1.146512E+001,  9.266998E-001,  3.000270E-001
 -1.757925E+002, -3.524128E+000,  0.000000E+000, -5.092898E+001, -1.146512E+001, -9.266998E-001,  3.000270E-001
  1.695683E+002,  1.276355E+001,  0.000000E+000,  5.697727E+001,  9.683661E+000, -3.956124E-001,  3.002914E-001
 -1.695683E+002, -1.276355E+001,  0.000000E+000, -5.697727E+001, -9.683661E+000,  3.956124E-001,  3.002914E-001
  1.638757E+002,  2.118464E+001,  0.000000E+000,  6.236087E+001,  8.137202E+000, -1.639609E+000,  3.000909E-001
 -1.638757E+002, -2.118464E+001,  0.000000E+000, -6.236087E+001, -8.137202E+000,  1.639609E+000,  3.000909E-001
  1.584855E+002,  2.872061E+001,  0.000000E+000,  6.723459E+001,  6.788568E+000, -2.636244E+000,  3.004979E-001
 -1.584855E+002, -2.872061E+001,  0.000000E+000, -6.723459E+001, -6.788568E+000,  2.636244E+000,  3.004979E-001
  1.535228E+002,  3.544018E+001,  0.000000E+000,  7.161538E+001,  5.591585E+000, -3.512538E+000,  3.004325E-001
 -1.535228E+002, -3.544018E+001,  0.000000E+000, -7.161538E+001, -5.591585E+000,  3.512538E+000,  3.004325E-001
  2.152923E+002,  4.847140E+001,  0.000000E+000, -8.674634E+001, -1.106507E+001,  1.207118E+000,  3.000566E-001
 -2.152923E+002, -4.847140E+001,  0.000000E+000,  8.674634E+001,  1.106507E+001, -1.207118E+000,  3.000566E-001
  2.199193E+002,  4.712883E+001,  0.000000E+000, -8.484955E+001, -1.086797E+001,  3.985240E+000,  3.003438E-001
 -2.199193E+002, -4.712883E+001,  0.000000E+000,  8.484955E+001,  1.086797E+001, -3.985240E+000,  3.003438E-001
  2.250186E+002,  4.577142E+001,  0.000000E+000, -8.267635E+001, -1.076249E+001,  7.145042E+000,  3.003383E-001
 -2.250186E+002, -4.577142E+001,  0.000000E+000,  8.267635E+001,  1.076249E+001, -7.145042E+000,  3.003383E-001
  2.304855E+002,  4.426655E+001,  0.000000E+000, -8.025036E+001, -1.061762E+001,  1.078622E+001,  3.004167E-001
 -2.304855E+002, -4.426655E+001,  0.000000E+000,  8.025036E+001,  1.061762E+001, -1.078622E+001,  3.004167E-001
  2.363389E+002,  4.274675E+001,  0.000000E+000, -7.718967E+001, -9.811752E+000,  1.462223E+001,  3.006157E-001
 -2.363389E+002, -4.274675E+001,  0.000000E+000,  7.718967E+001,  9.811752E+000, -1.462223E+001,  3.006157E-001
  2.422269E+002,  4.322801E+001,  0.000000E+000, -7.259009E+001, -7.787592E+000,  1.820434E+001,  3.002585E-001
 -2.422269E+002, -4.322801E+001,  0.000000E+000,  7.259009E+001,  7.787592E+000, -1.820434E+001,  3.002585E-001
  2.465995E+002,  4.466557E+001,  0.000000E+000, -6.719001E+001, -4.458320E+000,  2.057972E+001,  3.001725E-001
 -2.465995E+002, -4.466557E+001,  0.000000E+000,  6.719001E+001,  4.458320E+000, -2.057972E+001,  3.001725E-001
  2.493235E+002,  4.740525E+001,  0.000000E+000, -6.137846E+001, -1.475901E+000,  2.198080E+001,  3.000007E-001
 -2.493235E+002, -4.740525E+001,  0.000000E+000,  6.137846E+001,  1.475901E+000, -2.198080E+001,  3.000007E-001
  2.454843E+002,  4.597217E+001,  0.000000E+000, -4.932661E+001,  2.482071E+000,  2.124306E+001,  3.000801E-001
 -2.454843E+002, -4.597217E+001,  0.000000E+000,  4.932661E+001, -2.482071E+000, -2.124306E+001,  3.000801E-001
  2.377396E+002,  4.225330E+001,  0.000000E+000, -3.355374E+001,  6.219318E+000,  1.873185E+001,  3.002180E-001
 -2.377396E+002, -4.225330E+001,  0.000000E+000,  3.355374E+001, -6.219318E+000, -1.873185E+001,  3.002180E-001
  2.284260E+002,  3.904477E+001,  0.000000E+000, -1.720315E+001,  8.641431E+000,  1.580718E+001,  3.000536E-001
 -2.284260E+002, -3.904477E+001,  0.000000E+000,  1.720315E+001, -8.641431E+000, -1.580718E+001,  3.000536E-001
  2.177375E+002,  3.618582E+001,  0.000000E+000, -9.301618E-001,  9.874051E+000,  1.273703E+001,  3.002316E-001
 -2.177375E+002, -3.618582E+001,  0.000000E+000,  9.301618E-001, -9.874051E+000, -1.273703E+001,  3.002316E-001
  2.065946E+002,  3.301673E+001,  0.000000E+000,  1.453553E+001,  1.088061E+001,  9.722911E+000,  3.004391E-001
 -2.065946E+002, -3.301673E+001,  0.000000E+000, -1.453553E+001, -1.088061E+001, -9.722911E+000,  3.004391E-001
  1.952990E+002,  2.994150E+001,  0.000000E+000,  2.922264E+001,  1.171398E+001,  6.835102E+000,  3.004235E-001
 -1.952990E+002, -2.994150E+001,  0.000000E+000, -2.922264E+001, -1.171398E+001, -6.835102E+000,  3.004235E-001
  1.844720E+002,  2.711783E+001,  0.000000E+000,  4.309516E+001,  1.245449E+001,  4.057389E+000,  3.003813E-001
 -1.844720E+002, -2.711783E+001,  0.000000E+000, -4.309516E+001, -1.245449E+001, -4.057389E+000,  3.003813E-001
  1.743223E+002,  2.516670E+001,  0.000000E+000,  5.564581E+001,  1.315006E+001,  1.449336E+000,  3.002135E-001
 -1.743223E+002, -2.516670E+001,  0.000000E+000, -5.564581E+001, -1.315006E+001, -1.449336E+000,  3.002135E-001
  1.674702E+002,  3.178635E+001,  0.000000E+000,  6.232963E+001,  1.166502E+001, -3.251544E-002,  3.003410E-001
 -1.674702E+002, -3.178635E+001,  0.000000E+000, -6.232963E+001, -1.166502E+001,  3.251544E-002,  3.003410E-001
  1.618531E+002,  3.919203E+001,  0.000000E+000,  6.752730E+001,  1.003586E+001, -1.274038E+000,  3.000786E-001
 -1.618531E+002, -3.919203E+001,  0.000000E+000, -6.752730E+001, -1.003586E+001,  1.274038E+000,  3.000786E-001
  1.566423E+002,  4.571721E+001,  0.000000E+000,  7.207086E+001,  8.642486E+000, -2.346106E+000,  3.002114E-001
 -1.566423E+002, -4.571721E+001,  0.000000E+000, -7.207086E+001, -8.642486E+000,  2.346106E+000,  3.002114E-001
  1.517314E+002,  5.147721E+001,  0.000000E+000,  7.616433E+001,  7.417838E+000, -3.264064E+000,  3.000566E-001
 -1.517314E+002, -5.147721E+001,  0.000000E+000, -7.616433E+001, -7.417838E+000,  3.264064E+000,  3.000566E-001
  2.147416E+002,  6.800174E+001,  0.000000E+000, -8.720817E+001, -1.437907E+001,  1.775732E+000,  3.001277E-001
 -2.147416E+002, -6.800174E+001,  0.000000E+000,  8.720817E+001,  1.437907E+001, -1.775732E+000,  3.001277E-001
  2.191943E+002,  6.800320E+001,  0.000000E+000, -8.531963E+001, -1.396029E+001,  4.471152E+000,  3.001280E-001
 -2.191943E+002, -6.800320E+001,  0.000000E+000,  8.531963E+001,  1.396029E+001, -4.471152E+000,  3.001280E-001
  2.240389E+002,  6.844386E+001,  0.000000E+000, -8.295437E+001, -1.314485E+001,  7.504029E+000,  3.004817E-001
 -2.240389E+002, -6.844386E+001,  0.000000E+000,  8.295437E+001,  1.314485E+001, -7.504029E+000,  3.004817E-001
  2.293178E+002,  6.981726E+001,  0.000000E+000, -7.958323E+001, -1.170176E+001,  1.092207E+001,  3.002361E-001
 -2.293178E+002, -6.981726E+001,  0.000000E+000,  7.958323E+001,  1.170176E+001, -1.092207E+001,  3.002361E-001
  2.348893E+002,  7.199643E+001,  0.000000E+000, -7.511890E+001, -9.613700E+000,  1.444956E+001,  3.005081E-001
 -2.348893E+002, -7.199643E+001,  0.000000E+000,  7.511890E+001,  9.613700E+000, -1.444956E+001,  3.005081E-001
  2.404369E+002,  7.460030E+001,  0.000000E+000, -6.991150E+001, -6.873472E+000,  1.792950E+001,  3.004535E-001
 -2.404369E+002, -7.460030E+001,  0.000000E+000,  6.991150E+001,  6.873472E+000, -1.792950E+001,  3.004535E-001
  2.453167E+002,  7.730307E+001,  0.000000E+000, -6.418419E+001, -3.673210E+000,  2.072067E+001,  3.002828E-001
 -2.453167E+002, -7.730307E+001,  0.000000E+000,  6.418419E+001,  3.673210E+000, -2.072067E+001,  3.002828E-001
  2.489195E+002,  8.006671E+001,  0.000000E+000, -5.790379E+001, -8.555831E-002,  2.242854E+001,  3.003923E-001
 -2.489195E+002, -8.006671E+001,  0.000000E+000,  5.790379E+001,  8.555831E-002, -2.242854E+001,  3.003923E-001
  2.485792E+002,  8.221822E+001,  0.000000E+000, -4.947960E+001,  3.745932E+000,  2.313188E+001,  3.004501E-001
 -2.485792E+002, -8.221822E+001,  0.000000E+000,  4.947960E+001, -3.745932E+000, -2.313188E+001,  3.004501E-001
  2.400480E+002,  7.903006E+001,  0.000000E+000, -3.369804E+001,  6.417108E+000,  2.039434E+001,  3.003437E-001
 -2.400480E+002, -7.903006E+001,  0.000000E+000,  3.369804E+001, -6.417108E+000, -2.039434E+001,  3.003437E-001
  2.295883E+002,  7.556184E+001,  0.000000E+000, -1.712022E+001,  7.803554E+000,  1.732923E+001,  3.001106E-001
 -2.295883E+002, -7.556184E+001,  0.000000E+000,  1.712022E+001, -7.803554E+000, -1.732923E+001,  3.001106E-001
  2.188901E+002,  7.183051E+001,  0.000000E+000, -1.253463E+000,  9.044722E+000,  1.423365E+001,  3.001686E-001
 -2.188901E+002, -7.183051E+001,  0.000000E+000,  1.253463E+000, -9.044722E+000, -1.423365E+001,  3.001686E-001
  2.076942E+002,  6.783121E+001,  0.000000E+000,  1.380343E+001,  1.000523E+001,  1.128164E+001,  3.002467E-001
 -2.076942E+002, -6.783121E+001,  0.000000E+000, -1.380343E+001, -1.000523E+001, -1.128164E+001,  3.002467E-001
  1.965467E+002,  6.388117E+001,  0.000000E+000,  2.822887E+001,  1.083403E+001,  8.384085E+000,  3.003739E-001
 -1.965467E+002, -6.388117E+001,  0.000000E+000, -2.822887E+001, -1.083403E+001, -8.384085E+000,  3.003739E-001
  1.859013E+002,  6.013052E+001,  0.000000E+000,  4.186174E+001,  1.158856E+001,  5.619471E+000,  3.003837E-001
 -1.859013E+002, -6.013052E+001,  0.000000E+000, -4.186174E+001, -1.158856E+001, -5.619471E+000,  3.003837E-001
  1.758035E+002,  5.657415E+001,  0.000000E+000,  5.464795E+001,  1.234188E+001,  2.979361E+000,  3.003878E-001
 -1.758035E+002, -5.657415E+001,  0.000000E+000, -5.464795E+001, -1.234188E+001, -2.979361E+000,  3.003878E-001
  1.662960E+002,  5.345690E+001,  0.000000E+000,  6.623648E+001,  1.312909E+001,  5.023319E-001,  3.001754E-001
 -1.662960E+002, -5.345690E+001,  0.000000E+000, -6.623648E+001, -1.312909E+001, -5.023319E-001,  3.001754E-001
  1.597596E+002,  5.727095E+001,  0.000000E+000,  7.242883E+001,  1.197033E+001, -9.205080E-001,  3.003349E-001
 -1.597596E+002, -5.727095E+001,  0.000000E+000, -7.242883E+001, -1.197033E+001,  9.205080E-001,  3.003349E-001
  1.546897E+002,  6.166812E+001,  0.000000E+000,  7.640547E+001,  1.036762E+001, -2.102362E+000,  3.004074E-001
 -1.546897E+002, -6.166812E+001,  0.000000E+000, -7.640547E+001, -1.036762E+001,  2.102362E+000,  3.004074E-001
  1.500758E+002,  6.334719E+001,  0.000000E+000,  7.919834E+001,  8.522988E+000, -3.127989E+000,  3.004850E-001
 -1.500758E+002, -6.334719E+001,  0.000000E+000, -7.919834E+001, -8.522988E+000,  3.127989E+000,  3.004850E-001
  2.140975E+002,  8.889788E+001,  0.000000E+000, -8.691675E+001, -1.680164E+001,  2.448228E+000,  3.001415E-001
 -2.140975E+002, -8.889788E+001,  0.000000E+000,  8.691675E+001,  1.680164E+001, -2.448228E+000,  3.001415E-001
  2.184173E+002,  9.079009E+001,  0.000000E+000, -8.455445E+001, -1.565537E+001,  5.100357E+000,  3.002352E-001
 -2.184173E+002, -9.079009E+001,  0.000000E+000,  8.455445E+001,  1.565537E+001, -5.100357E+000,  3.002352E-001
  2.232055E+002,  9.351985E+001,  0.000000E+000, -8.142507E+001, -1.410075E+001,  8.033680E+000,  3.002518E-001
 -2.232055E+002, -9.351985E+001,  0.000000E+000,  8.142507E+001,  1.410075E+001, -8.033680E+000,  3.002518E-001
  2.283347E+002,  9.719923E+001,  0.000000E+000, -7.733530E+001, -1.210257E+001,  1.128067E+001,  3.001616E-001
 -2.283347E+002, -9.719923E+001,  0.000000E+000,  7.733530E+001,  1.210257E+001, -1.128067E+001,  3.001616E-001
  2.336247E+002,  1.012364E+002,  0.000000E+000, -7.265470E+001, -9.703630E+000,  1.469620E+001,  3.001636E-001
 -2.336247E+002, -1.012364E+002,  0.000000E+000,  7.265470E+001,  9.703630E+000, -1.469620E+001,  3.001636E-001
  2.389767E+002,  1.055440E+002,  0.000000E+000, -6.743625E+001, -6.985898E+000,  1.810608E+001,  3.002208E-001
 -2.389767E+002, -1.055440E+002,  0.000000E+000,  6.743625E+001,  6.985898E+000, -1.810608E+001,  3.002208E-001
  2.438939E+002,  1.098081E+002,  0.000000E+000, -6.163577E+001, -3.991963E+000,  2.105566E+001,  3.004097E-001
 -2.438939E+002, -1.098081E+002,  0.000000E+000,  6.163577E+001,  3.991963E+000, -2.105566E+001,  3.004097E-001
  2.473719E+002,  1.138608E+002,  0.000000E+000, -5.526485E+001, -5.683831E-001,  2.283819E+001,  3.003540E-001
 -2.473719E+002, -1.138608E+002,  0.000000E+000,  5.526485E+001,  5.683831E-001, -2.283819E+001,  3.003540E-001
  2.481746E+002,  1.169518E+002,  0.000000E+000, -4.737949E+001,  3.464829E+000,  2.394898E+001,  3.004480E-001
 -2.481746E+002, -1.169518E+002,  0.000000E+000,  4.737949E+001, -3.464829E+000, -2.394898E+001,  3.004480E-001
  2.405715E+002,  1.148180E+002,  0.000000E+000, -3.304643E+001,  5.630728E+000,  2.180262E+001,  3.000414E-001
 -2.405715E+002, -1.148180E+002,  0.000000E+000,  3.304643E+001, -5.630728E+000, -2.180262E+001,  3.000414E-001
  2.303156E+002,  1.107457E+002,  0.000000E+000, -1.699479E+001,  6.979443E+000,  1.871995E+001,  3.000182E-001
 -2.303156E+002, -1.107457E+002,  0.000000E+000,  1.699479E+001, -6.979443E+000, -1.871995E+001,  3.000182E-001
  2.197178E+002,  1.062404E+002,  0.000000E+000, -1.551669E+000,  8.266994E+000,  1.564857E+001,  3.004242E-001
 -2.197178E+002, -1.062404E+002,  0.000000E+000,  1.551669E+000, -8.266994E+000, -1.564857E+001,  3.004242E-001
  2.086305E+002,  1.013338E+002,  0.000000E+000,  1.315027E+001,  9.204881E+000,  1.272768E+001,  3.000079E-001
 -2.086305E+002, -1.013338E+002,  0.000000E+000, -1.315027E+001, -9.204881E+000, -1.272768E+001,  3.000079E-001
  1.976705E+002,  9.642263E+001,  0.000000E+000,  2.727551E+001,  1.003620E+001,  9.850870E+000,  3.000477E-001
 -1.976705E+002, -9.642263E+001,  0.000000E+000, -2.727551E+001, -1.003620E+001, -9.850870E+000,  3.000477E-001
  1.872009E+002,  9.151274E+001,  0.000000E+000,  4.056423E+001,  1.084378E+001,  7.115700E+000,  3.002872E-001
 -1.872009E+002, -9.151274E+001,  0.000000E+000, -4.056423E+001, -1.084378E+001, -7.115700E+000,  3.002872E-001
  1.772187E+002,  8.619692E+001,  0.000000E+000,  5.291056E+001,  1.154994E+001,  4.476219E+000,  3.000916E-001
 -1.772187E+002, -8.619692E+001,  0.000000E+000, -5.291056E+001, -1.154994E+001, -4.476219E+000,  3.000916E-001
  1.677705E+002,  7.895187E+001,  0.000000E+000,  6.394912E+001,  1.193704E+001,  1.860625E+000,  3.001438E-001
 -1.677705E+002, -7.895187E+001,  0.000000E+000, -6.394912E+001, -1.193704E+001, -1.860625E+000,  3.001438E-001
  1.590640E+002,  7.116233E+001,  0.000000E+000,  7.345617E+001,  1.208522E+001, -7.007204E-001,  3.000175E-001
 -1.590640E+002, -7.116233E+001,  0.000000E+000, -7.345617E+001, -1.208522E+001,  7.007204E-001,  3.000175E-001
  1.533447E+002,  6.887793E+001,  0.000000E+000,  7.764975E+001,  1.026859E+001, -2.209021E+000,  3.002161E-001
 -1.533447E+002, -6.887793E+001,  0.000000E+000, -7.764975E+001, -1.026859E+001,  2.209021E+000,  3.002161E-001
  1.490966E+002,  6.863602E+001,  0.000000E+000,  7.989412E+001,  8.370791E+000, -3.270988E+000,  3.000366E-001
 -1.490966E+002, -6.863602E+001,  0.000000E+000, -7.989412E+001, -8.370791E+000,  3.270988E+000,  3.000366E-001
  2.132566E+002,  1.100069E+002,  0.000000E+000, -8.568542E+001, -1.783064E+001,  2.973229E+000,  3.003766E-001
 -2.132566E+002, -1.100069E+002,  0.000000E+000,  8.568542E+001,  1.783064E+001, -2.973229E+000,  3.003766E-001
  2.175636E+002,  1.135393E+002,  0.000000E+000, -8.284408E+001, -1.642357E+001,  5.641350E+000,  3.002338E-001
 -2.175636E+002, -1.135393E+002,  0.000000E+000,  8.284408E+001,  1.642357E+001, -5.641350E+000,  3.002338E-001
  2.223778E+002,  1.180661E+002,  0.000000E+000, -7.903527E+001, -1.460514E+001,  8.594684E+000,  3.005469E-001
 -2.223778E+002, -1.180661E+002,  0.000000E+000,  7.903527E+001,  1.460514E+001, -8.594684E+000,  3.005469E-001
  2.273057E+002,  1.230533E+002,  0.000000E+000, -7.478450E+001, -1.252353E+001,  1.176061E+001,  3.003519E-001
 -2.273057E+002, -1.230533E+002,  0.000000E+000,  7.478450E+001,  1.252353E+001, -1.176061E+001,  3.003519E-001
  2.324395E+002,  1.284656E+002,  0.000000E+000, -7.007936E+001, -1.016673E+001,  1.511043E+001,  3.002576E-001
 -2.324395E+002, -1.284656E+002,  0.000000E+000,  7.007936E+001,  1.016673E+001, -1.511043E+001,  3.002576E-001
  2.376163E+002,  1.342105E+002,  0.000000E+000, -6.485216E+001, -7.614753E+000,  1.845247E+001,  3.003209E-001
 -2.376163E+002, -1.342105E+002,  0.000000E+000,  6.485216E+001,  7.614753E+000, -1.845247E+001,  3.003209E-001
  2.425504E+002,  1.401762E+002,  0.000000E+000, -5.912783E+001, -4.773001E+000,  2.150222E+001,  3.005137E-001
 -2.425504E+002, -1.401762E+002,  0.000000E+000,  5.912783E+001,  4.773001E+000, -2.150222E+001,  3.005137E-001
  2.458530E+002,  1.457384E+002,  0.000000E+000, -5.277000E+001, -1.434950E+000,  2.333933E+001,  3.002810E-001
 -2.458530E+002, -1.457384E+002,  0.000000E+000,  5.277000E+001,  1.434950E+000, -2.333933E+001,  3.002810E-001
  2.469407E+002,  1.501933E+002,  0.000000E+000, -4.525951E+001,  2.496486E+000,  2.467960E+001,  3.004575E-001
 -2.469407E+002, -1.501933E+002,  0.000000E+000,  4.525951E+001, -2.496486E+000, -2.467960E+001,  3.004575E-001
  2.408773E+002,  1.489754E+002,  0.000000E+000, -3.239147E+001,  4.903947E+000,  2.311630E+001,  3.001159E-001
 -2.408773E+002, -1.489754E+002,  0.000000E+000,  3.239147E+001, -4.903947E+000, -2.311630E+001,  3.001159E-001
  2.308469E+002,  1.443090E+002,  0.000000E+000, -1.681925E+001,  6.281067E+000,  2.004214E+001,  3.003548E-001
 -2.308469E+002, -1.443090E+002,  0.000000E+000,  1.681925E+001, -6.281067E+000, -2.004214E+001,  3.003548E-001
  2.203609E+002,  1.389855E+002,  0.000000E+000, -1.856518E+000,  7.540238E+000,  1.699785E+001,  3.002941E-001
 -2.203609E+002, -1.389855E+002,  0.000000E+000,  1.856518E+000, -7.540238E+000, -1.699785E+001,  3.002941E-001
  2.094221E+002,  1.321933E+002,  0.000000E+000,  1.227632E+001,  8.428991E+000,  1.409639E+001,  3.000893E-001
 -2.094221E+002, -1.321933E+002,  0.000000E+000, -1.227632E+001, -8.428991E+000, -1.409639E+001,  3.000893E-001
  1.985658E+002,  1.228129E+002,  0.000000E+000,  2.539420E+001,  8.808537E+000,  1.106802E+001,  3.003654E-001
 -1.985658E+002, -1.228129E+002,  0.000000E+000, -2.539420E+001, -8.808537E+000, -1.106802E+001,  3.003654E-001
  1.883315E+002,  1.124831E+002,  0.000000E+000,  3.740034E+001,  8.934419E+000,  8.084884E+000,  3.003134E-001
 -1.883315E+002, -1.124831E+002,  0.000000E+000, -3.740034E+001, -8.934419E+000, -8.084884E+000,  3.003134E-001
  1.787108E+002,  1.024830E+002,  0.000000E+000,  4.854214E+001,  9.098865E+000,  5.262183E+000,  3.000307E-001
 -1.787108E+002, -1.024830E+002,  0.000000E+000, -4.854214E+001, -9.098865E+000, -5.262183E+000,  3.000307E-001
  1.696306E+002,  9.288831E+001,  0.000000E+000,  5.893407E+001,  9.346942E+000,  2.562024E+000,  3.003601E-001
 -1.696306E+002, -9.288831E+001,  0.000000E+000, -5.893407E+001, -9.346942E+000, -2.562024E+000,  3.003601E-001
  1.611110E+002,  8.378352E+001,  0.000000E+000,  6.856072E+001,  9.658335E+000,  1.507815E-002,  3.002028E-001
 -1.611110E+002, -8.378352E+001,  0.000000E+000, -6.856072E+001, -9.658335E+000, -1.507815E-002,  3.002028E-001
  1.534226E+002,  7.602214E+001,  0.000000E+000,  7.668935E+001,  9.739278E+000, -2.245418E+000,  3.000392E-001
 -1.534226E+002, -7.602214E+001,  0.000000E+000, -7.668935E+001, -9.739278E+000,  2.245418E+000,  3.000392E-001
  1.483269E+002,  7.326516E+001,  0.000000E+000,  8.022653E+001,  8.030070E+000, -3.463175E+000,  3.001690E-001
 -1.483269E+002, -7.326516E+001,  0.000000E+000, -8.022653E+001, -8.030070E+000,  3.463175E+000,  3.001690E-001
  2.123771E+002,  1.307965E+002,  0.000000E+000, -8.397349E+001, -1.832027E+001,  3.441476E+000,  3.004430E-001
 -2.123771E+002, -1.307965E+002,  0.000000E+000,  8.397349E+001,  1.832027E+001, -3.441476E+000,  3.004430E-001
  2.167162E+002,  1.357355E+002,  0.000000E+000, -8.046655E+001, -1.665489E+001,  6.099501E+000,  3.002818E-001
 -2.167162E+002, -1.357355E+002,  0.000000E+000,  8.046655E+001,  1.665489E+001, -6.099501E+000,  3.002818E-001
  2.213996E+002,  1.411847E+002,  0.000000E+000, -7.653765E+001, -1.482935E+001,  9.002226E+000,  3.004923E-001
 -2.213996E+002, -1.411847E+002,  0.000000E+000,  7.653765E+001,  1.482935E+001, -9.002226E+000,  3.004923E-001
  2.262691E+002,  1.470767E+002,  0.000000E+000, -7.220459E+001, -1.279384E+001,  1.218372E+001,  3.004608E-001
 -2.262691E+002, -1.470767E+002,  0.000000E+000,  7.220459E+001,  1.279384E+001, -1.218372E+001,  3.004608E-001
  2.312557E+002,  1.534514E+002,  0.000000E+000, -6.746100E+001, -1.057290E+001,  1.548658E+001,  3.005876E-001
 -2.312557E+002, -1.534514E+002,  0.000000E+000,  6.746100E+001,  1.057290E+001, -1.548658E+001,  3.005876E-001
  2.362343E+002,  1.602406E+002,  0.000000E+000, -6.222232E+001, -8.174300E+000,  1.877509E+001,  3.003366E-001
 -2.362343E+002, -1.602406E+002,  0.000000E+000,  6.222232E+001,  8.174300E+000, -1.877509E+001,  3.003366E-001
  2.411543E+002,  1.673997E+002,  0.000000E+000, -5.651750E+001, -5.537336E+000,  2.189511E+001,  3.003684E-001
 -2.411543E+002, -1.673997E+002,  0.000000E+000,  5.651750E+001,  5.537336E+000, -2.189511E+001,  3.003684E-001
  2.443567E+002,  1.740983E+002,  0.000000E+000, -5.010598E+001, -2.346182E+000,  2.384929E+001,  3.001168E-001
 -2.443567E+002, -1.740983E+002,  0.000000E+000,  5.010598E+001,  2.346182E+000, -2.384929E+001,  3.001168E-001
  2.455785E+002,  1.797090E+002,  0.000000E+000, -4.291692E+001,  1.449033E+000,  2.534634E+001,  3.000004E-001
 -2.455785E+002, -1.797090E+002,  0.000000E+000,  4.291692E+001, -1.449033E+000, -2.534634E+001,  3.000004E-001
  2.408168E+002,  1.792356E+002,  0.000000E+000, -3.172186E+001,  4.084998E+000,  2.424421E+001,  3.000743E-001
 -2.408168E+002, -1.792356E+002,  0.000000E+000,  3.172186E+001, -4.084998E+000, -2.424421E+001,  3.000743E-001
  2.308133E+002,  1.703091E+002,  0.000000E+000, -1.741128E+001,  5.033576E+000,  2.096531E+001,  3.002600E-001
 -2.308133E+002, -1.703091E+002,  0.000000E+000,  1.741128E+001, -5.033576E+000, -2.096531E+001,  3.002600E-001
  2.205061E+002,  1.592225E+002,  0.000000E+000, -3.863158E+000,  5.529435E+000,  1.767907E+001,  3.004271E-001
 -2.205061E+002, -1.592225E+002,  0.000000E+000,  3.863158E+000, -5.529435E+000, -1.767907E+001,  3.004271E-001
  2.099507E+002,  1.475646E+002,  0.000000E+000,  9.005148E+000,  5.781067E+000,  1.455640E+001,  3.000577E-001
 -2.099507E+002, -1.475646E+002,  0.000000E+000, -9.005148E+000, -5.781067E+000, -1.455640E+001,  3.000577E-001
  1.995100E+002,  1.360714E+002,  0.000000E+000,  2.140223E+001,  6.009531E+000,  1.149675E+001,  3.003254E-001
 -1.995100E+002, -1.360714E+002,  0.000000E+000, -2.140223E+001, -6.009531E+000, -1.149675E+001,  3.003254E-001
  1.896356E+002,  1.250209E+002,  0.000000E+000,  3.295891E+001,  6.324708E+000,  8.613712E+000,  3.001710E-001
 -1.896356E+002, -1.250209E+002,  0.000000E+000, -3.295891E+001, -6.324708E+000, -8.613712E+000,  3.001710E-001
  1.802946E+002,  1.144972E+002,  0.000000E+000,  4.375603E+001,  6.704901E+000,  5.842122E+000,  3.004120E-001
 -1.802946E+002, -1.144972E+002,  0.000000E+000, -4.375603E+001, -6.704901E+000, -5.842122E+000,  3.004120E-001
  1.714969E+002,  1.045574E+002,  0.000000E+000,  5.384898E+001,  7.022003E+000,  3.198231E+000,  3.002051E-001
 -1.714969E+002, -1.045574E+002,  0.000000E+000, -5.384898E+001, -7.022003E+000, -3.198231E+000,  3.002051E-001
  1.632438E+002,  9.513804E+001,  0.000000E+000,  6.328707E+001,  7.273568E+000,  6.891105E-001,  3.002308E-001
 -1.632438E+002, -9.513804E+001,  0.000000E+000, -6.328707E+001, -7.273568E+000, -6.891105E-001,  3.002308E-001
  1.554392E+002,  8.630897E+001,  0.000000E+000,  7.211061E+001,  7.528106E+000, -1.671287E+000,  3.002740E-001
 -1.554392E+002, -8.630897E+001,  0.000000E+000, -7.211061E+001, -7.528106E+000,  1.671287E+000,  3.002740E-001
  1.482330E+002,  7.934719E+001,  0.000000E+000,  7.915958E+001,  7.343665E+000, -3.376008E+000,  3.000589E-001
 -1.482330E+002, -7.934719E+001,  0.000000E+000, -7.915958E+001, -7.343665E+000,  3.376008E+000,  3.000589E-001
  2.115398E+002,  1.511912E+002,  0.000000E+000, -8.172877E+001, -1.847222E+001,  3.893559E+000,  3.001210E-001
 -2.115398E+002, -1.511912E+002,  0.000000E+000,  8.172877E+001,  1.847222E+001, -3.893559E+000,  3.001210E-001
  2.158460E+002,  1.568960E+002,  0.000000E+000, -7.809188E+001, -1.681878E+001,  6.504645E+000,  3.001862E-001
 -2.158460E+002, -1.568960E+002,  0.000000E+000,  7.809188E+001,  1.681878E+001, -6.504645E+000,  3.001862E-001
  2.204002E+002,  1.631157E+002,  0.000000E+000, -7.409931E+001, -1.500675E+001,  9.355981E+000,  3.004564E-001
 -2.204002E+002, -1.631157E+002,  0.000000E+000,  7.409931E+001,  1.500675E+001, -9.355981E+000,  3.004564E-001
  2.251142E+002,  1.697714E+002,  0.000000E+000, -6.974313E+001, -1.303790E+001,  1.247383E+001,  3.003624E-001
 -2.251142E+002, -1.697714E+002,  0.000000E+000,  6.974313E+001,  1.303790E+001, -1.247383E+001,  3.003624E-001
  2.300025E+002,  1.769222E+002,  0.000000E+000, -6.492920E+001, -1.097314E+001,  1.576126E+001,  3.004725E-001
 -2.300025E+002, -1.769222E+002,  0.000000E+000,  6.492920E+001,  1.097314E+001, -1.576126E+001,  3.004725E-001
  2.348336E+002,  1.844326E+002,  0.000000E+000, -5.972020E+001, -8.684234E+000,  1.903001E+001,  3.001604E-001
 -2.348336E+002, -1.844326E+002,  0.000000E+000,  5.972020E+001,  8.684234E+000, -1.903001E+001,  3.001604E-001
  2.396143E+002,  1.922871E+002,  0.000000E+000, -5.403916E+001, -6.238059E+000,  2.217350E+001,  3.003919E-001
 -2.396143E+002, -1.922871E+002,  0.000000E+000,  5.403916E+001,  6.238059E+000, -2.217350E+001,  3.003919E-001
  2.425203E+002,  1.972905E+002,  0.000000E+000, -4.802260E+001, -3.334830E+000,  2.413587E+001,  3.001265E-001
 -2.425203E+002, -1.972905E+002,  0.000000E+000,  4.802260E+001,  3.334830E+000, -2.413587E+001,  3.001265E-001
  2.434895E+002,  1.966529E+002,  0.000000E+000, -4.234337E+001, -3.669565E-001,  2.508648E+001,  3.001265E-001
 -2.434895E+002, -1.966529E+002,  0.000000E+000,  4.234337E+001,  3.669565E-001, -2.508648E+001,  3.001265E-001
  2.396855E+002,  1.908526E+002,  0.000000E+000, -3.286000E+001,  1.396338E+000,  2.415415E+001,  3.004216E-001
 -2.396855E+002, -1.908526E+002,  0.000000E+000,  3.286000E+001, -1.396338E+000, -2.415415E+001,  3.004216E-001
  2.302677E+002,  1.801745E+002,  0.000000E+000, -1.941636E+001,  2.054927E+000,  2.098142E+001,  3.003251E-001
 -2.302677E+002, -1.801745E+002,  0.000000E+000,  1.941636E+001, -2.054927E+000, -2.098142E+001,  3.003251E-001
  2.204586E+002,  1.692703E+002,  0.000000E+000, -6.638654E+000,  2.701915E+000,  1.782091E+001,  3.001980E-001
 -2.204586E+002, -1.692703E+002,  0.000000E+000,  6.638654E+000, -2.701915E+000, -1.782091E+001,  3.001980E-001
  2.104317E+002,  1.580257E+002,  0.000000E+000,  5.504605E+000,  3.200342E+000,  1.484232E+001,  3.003821E-001
 -2.104317E+002, -1.580257E+002,  0.000000E+000, -5.504605E+000, -3.200342E+000, -1.484232E+001,  3.003821E-001
  2.004257E+002,  1.465121E+002,  0.000000E+000,  1.739070E+001,  3.637272E+000,  1.196645E+001,  3.004381E-001
 -2.004257E+002, -1.465121E+002,  0.000000E+000, -1.739070E+001, -3.637272E+000, -1.196645E+001,  3.004381E-001
  1.908529E+002,  1.353106E+002,  0.000000E+000,  2.859839E+001,  4.017172E+000,  9.107339E+000,  3.000753E-001
 -1.908529E+002, -1.353106E+002,  0.000000E+000, -2.859839E+001, -4.017172E+000, -9.107339E+000,  3.000753E-001
  1.818099E+002,  1.246599E+002,  0.000000E+000,  3.909663E+001,  4.353393E+000,  6.354310E+000,  3.001819E-001
 -1.818099E+002, -1.246599E+002,  0.000000E+000, -3.909663E+001, -4.353393E+000, -6.354310E+000,  3.001819E-001
  1.732924E+002,  1.146177E+002,  0.000000E+000,  4.894593E+001,  4.660783E+000,  3.746617E+000,  3.003124E-001
 -1.732924E+002, -1.146177E+002,  0.000000E+000, -4.894593E+001, -4.660783E+000, -3.746617E+000,  3.003124E-001
  1.652234E+002,  1.051871E+002,  0.000000E+000,  5.820436E+001,  4.927986E+000,  1.287529E+000,  3.001938E-001
 -1.652234E+002, -1.051871E+002,  0.000000E+000, -5.820436E+001, -4.927986E+000, -1.287529E+000,  3.001938E-001
  1.571974E+002,  9.641228E+001,  0.000000E+000,  6.700810E+001,  5.174110E+000, -7.655702E-001,  3.003739E-001
 -1.571974E+002, -9.641228E+001,  0.000000E+000, -6.700810E+001, -5.174110E+000,  7.655702E-001,  3.003739E-001
  1.490034E+002,  8.828654E+001,  0.000000E+000,  7.529678E+001,  5.455029E+000, -2.233758E+000,  3.000710E-001
 -1.490034E+002, -8.828654E+001,  0.000000E+000, -7.529678E+001, -5.455029E+000,  2.233758E+000,  3.000710E-001
  2.107217E+002,  1.706280E+002,  0.000000E+000, -7.948990E+001, -1.860263E+001,  4.339553E+000,  3.003995E-001
 -2.107217E+002, -1.706280E+002,  0.000000E+000,  7.948990E+001,  1.860263E+001, -4.339553E+000,  3.003995E-001
  2.149204E+002,  1.769804E+002,  0.000000E+000, -7.578655E+001, -1.695125E+001,  6.883268E+000,  3.004247E-001
 -2.149204E+002, -1.769804E+002,  0.000000E+000,  7.578655E+001,  1.695125E+001, -6.883268E+000,  3.004247E-001
  2.193796E+002,  1.837844E+002,  0.000000E+000, -7.176303E+001, -1.517591E+001,  9.648091E+000,  3.004701E-001
 -2.193796E+002, -1.837844E+002,  0.000000E+000,  7.176303E+001,  1.517591E+001, -9.648091E+000,  3.004701E-001
  2.239289E+002,  1.909611E+002,  0.000000E+000, -6.737864E+001, -1.330522E+001,  1.268858E+001,  3.003494E-001
 -2.239289E+002, -1.909611E+002,  0.000000E+000,  6.737864E+001,  1.330522E+001, -1.268858E+001,  3.003494E-001
  2.286328E+002,  1.986197E+002,  0.000000E+000, -6.258090E+001, -1.133976E+001,  1.592191E+001,  3.003905E-001
 -2.286328E+002, -1.986197E+002,  0.000000E+000,  6.258090E+001,  1.133976E+001, -1.592191E+001,  3.003905E-001
  2.331811E+002,  2.056372E+002,  0.000000E+000, -5.762475E+001, -9.206050E+000,  1.904827E+001,  3.002465E-001
 -2.331811E+002, -2.056372E+002,  0.000000E+000,  5.762475E+001,  9.206050E+000, -1.904827E+001,  3.002465E-001
  2.368452E+002,  2.072207E+002,  0.000000E+000, -5.335108E+001, -7.381523E+000,  2.098682E+001,  3.000233E-001
 -2.368452E+002, -2.072207E+002,  0.000000E+000,  5.335108E+001,  7.381523E+000, -2.098682E+001,  3.000233E-001
  2.397223E+002,  2.066223E+002,  0.000000E+000, -4.857491E+001, -5.328949E+000,  2.256417E+001,  3.003325E-001
 -2.397223E+002, -2.066223E+002,  0.000000E+000,  4.857491E+001,  5.328949E+000, -2.256417E+001,  3.003325E-001
  2.410707E+002,  2.045136E+002,  0.000000E+000, -4.337141E+001, -2.859465E+000,  2.381708E+001,  3.004400E-001
 -2.410707E+002, -2.045136E+002,  0.000000E+000,  4.337141E+001,  2.859465E+000, -2.381708E+001,  3.004400E-001
  2.378389E+002,  1.984013E+002,  0.000000E+000, -3.442335E+001, -1.141253E+000,  2.316776E+001,  3.002617E-001
 -2.378389E+002, -1.984013E+002,  0.000000E+000,  3.442335E+001,  1.141253E+000, -2.316776E+001,  3.002617E-001
  2.294120E+002,  1.874878E+002,  0.000000E+000, -2.147120E+001, -5.031686E-001,  2.067776E+001,  3.001961E-001
 -2.294120E+002, -1.874878E+002,  0.000000E+000,  2.147120E+001,  5.031686E-001, -2.067776E+001,  3.001961E-001
  2.202492E+002,  1.763734E+002,  0.000000E+000, -9.195985E+000,  2.758687E-001,  1.788406E+001,  3.003930E-001
 -2.202492E+002, -1.763734E+002,  0.000000E+000,  9.195985E+000, -2.758687E-001, -1.788406E+001,  3.003930E-001
  2.107316E+002,  1.652871E+002,  0.000000E+000,  2.418658E+000,  8.173788E-001,  1.501558E+001,  3.002829E-001
 -2.107316E+002, -1.652871E+002,  0.000000E+000, -2.418658E+000, -8.173788E-001, -1.501558E+001,  3.002829E-001
  2.011171E+002,  1.543692E+002,  0.000000E+000,  1.376729E+001,  1.263229E+000,  1.211982E+001,  3.002982E-001
 -2.011171E+002, -1.543692E+002,  0.000000E+000, -1.376729E+001, -1.263229E+000, -1.211982E+001,  3.002982E-001
  1.919027E+002,  1.437646E+002,  0.000000E+000,  2.454366E+001,  1.671527E+000,  9.329025E+000,  3.000721E-001
 -1.919027E+002, -1.437646E+002,  0.000000E+000, -2.454366E+001, -1.671527E+000, -9.329025E+000,  3.000721E-001
  1.831785E+002,  1.335074E+002,  0.000000E+000,  3.472939E+001,  2.017201E+000,  6.685206E+000,  3.000614E-001
 -1.831785E+002, -1.335074E+002,  0.000000E+000, -3.472939E+001, -2.017201E+000, -6.685206E+000,  3.000614E-001
  1.748605E+002,  1.236750E+002,  0.000000E+000,  4.435456E+001,  2.323811E+000,  4.145577E+000,  3.004468E-001
 -1.748605E+002, -1.236750E+002,  0.000000E+000, -4.435456E+001, -2.323811E+000, -4.145577E+000,  3.004468E-001
  1.665509E+002,  1.144176E+002,  0.000000E+000,  5.352527E+001,  2.606482E+000,  2.033125E+000,  3.002465E-001
 -1.665509E+002, -1.144176E+002,  0.000000E+000, -5.352527E+001, -2.606482E+000, -2.033125E+000,  3.002465E-001
  1.581409E+002,  1.058017E+002,  0.000000E+000,  6.225756E+001,  2.931225E+000,  4.745320E-001,  3.000530E-001
 -1.581409E+002, -1.058017E+002,  0.000000E+000, -6.225756E+001, -2.931225E+000, -4.745320E-001,  3.000530E-001
  1.493675E+002,  9.780532E+001,  0.000000E+000,  7.061139E+001,  3.337026E+000, -4.077654E-001,  3.001629E-001
 -1.493675E+002, -9.780532E+001,  0.000000E+000, -7.061139E+001, -3.337026E+000,  4.077654E-001,  3.001629E-001
  2.098657E+002,  1.890822E+002,  0.000000E+000, -7.730601E+001, -1.869274E+001,  4.815753E+000,  3.004751E-001
 -2.098657E+002, -1.890822E+002,  0.000000E+000,  7.730601E+001,  1.869274E+001, -4.815753E+000,  3.004751E-001
  2.139319E+002,  1.958400E+002,  0.000000E+000, -7.359134E+001, -1.707527E+001,  7.304146E+000,  3.003669E-001
 -2.139319E+002, -1.958400E+002,  0.000000E+000,  7.359134E+001,  1.707527E+001, -7.304146E+000,  3.003669E-001
  2.182394E+002,  2.030744E+002,  0.000000E+000, -6.955954E+001, -1.535229E+001,  9.987348E+000,  3.002329E-001
 -2.182394E+002, -2.030744E+002,  0.000000E+000,  6.955954E+001,  1.535229E+001, -9.987348E+000,  3.002329E-001
  2.226168E+002,  2.105189E+002,  0.000000E+000, -6.519600E+001, -1.358148E+001,  1.288029E+001,  3.001085E-001
 -2.226168E+002, -2.105189E+002,  0.000000E+000,  6.519600E+001,  1.358148E+001, -1.288029E+001,  3.001085E-001
  2.264283E+002,  2.139719E+002,  0.000000E+000, -6.139114E+001, -1.190469E+001,  1.520043E+001,  3.002389E-001
 -2.264283E+002, -2.139719E+002,  0.000000E+000,  6.139114E+001,  1.190469E+001, -1.520043E+001,  3.002389E-001
  2.300968E+002,  2.144836E+002,  0.000000E+000, -5.798272E+001, -1.043705E+001,  1.693340E+001,  3.003237E-001
 -2.300968E+002, -2.144836E+002,  0.000000E+000,  5.798272E+001,  1.043705E+001, -1.693340E+001,  3.003237E-001
  2.335157E+002,  2.142866E+002,  0.000000E+000, -5.405264E+001, -8.906976E+000,  1.856929E+001,  3.003007E-001
 -2.335157E+002, -2.142866E+002,  0.000000E+000,  5.405264E+001,  8.906976E+000, -1.856929E+001,  3.003007E-001
  2.361980E+002,  2.131197E+002,  0.000000E+000, -4.959463E+001, -6.901609E+000,  2.019201E+001,  3.003199E-001
 -2.361980E+002, -2.131197E+002,  0.000000E+000,  4.959463E+001,  6.901609E+000, -2.019201E+001,  3.003199E-001
  2.376844E+002,  2.106783E+002,  0.000000E+000, -4.457988E+001, -4.595511E+000,  2.163198E+001,  3.004682E-001
 -2.376844E+002, -2.106783E+002,  0.000000E+000,  4.457988E+001,  4.595511E+000, -2.163198E+001,  3.004682E-001
  2.354481E+002,  2.043604E+002,  0.000000E+000, -3.614030E+001, -2.975728E+000,  2.172110E+001,  3.001832E-001
 -2.354481E+002, -2.043604E+002,  0.000000E+000,  3.614030E+001,  2.975728E+000, -2.172110E+001,  3.001832E-001
  2.279980E+002,  1.933785E+002,  0.000000E+000, -2.367536E+001, -2.544872E+000,  1.972486E+001,  3.003541E-001
 -2.279980E+002, -1.933785E+002,  0.000000E+000,  2.367536E+001,  2.544872E+000, -1.972486E+001,  3.003541E-001
  2.196225E+002,  1.822974E+002,  0.000000E+000, -1.171225E+001, -2.034378E+000,  1.735981E+001,  3.003087E-001
 -2.196225E+002, -1.822974E+002,  0.000000E+000,  1.171225E+001,  2.034378E+000, -1.735981E+001,  3.003087E-001
  2.108164E+002,  1.713905E+002,  0.000000E+000, -4.486059E-001, -1.598161E+000,  1.483719E+001,  3.002797E-001
 -2.108164E+002, -1.713905E+002,  0.000000E+000,  4.486059E-001,  1.598161E+000, -1.483719E+001,  3.002797E-001
  2.016296E+002,  1.606874E+002,  0.000000E+000,  1.054543E+001, -1.139059E+000,  1.211896E+001,  3.002584E-001
 -2.016296E+002, -1.606874E+002,  0.000000E+000, -1.054543E+001,  1.139059E+000, -1.211896E+001,  3.002584E-001
  1.927317E+002,  1.504749E+002,  0.000000E+000,  2.096071E+001, -6.883414E-001,  9.397520E+000,  3.003162E-001
 -1.927317E+002, -1.504749E+002,  0.000000E+000, -2.096071E+001,  6.883414E-001, -9.397520E+000,  3.003162E-001
  1.842068E+002,  1.408095E+002,  0.000000E+000,  3.079804E+001, -2.946472E-001,  6.793425E+000,  3.002715E-001
 -1.842068E+002, -1.408095E+002,  0.000000E+000, -3.079804E+001,  2.946472E-001, -6.793425E+000,  3.002715E-001
  1.756658E+002,  1.315990E+002,  0.000000E+000,  4.024109E+001,  7.795995E-002,  4.703674E+000,  3.001930E-001
 -1.756658E+002, -1.315990E+002,  0.000000E+000, -4.024109E+001, -7.795995E-002, -4.703674E+000,  3.001930E-001
  1.670141E+002,  1.228082E+002,  0.000000E+000,  4.931130E+001,  4.685828E-001,  3.145498E+000,  3.002291E-001
 -1.670141E+002, -1.228082E+002,  0.000000E+000, -4.931130E+001, -4.685828E-001, -3.145498E+000,  3.002291E-001
  1.579816E+002,  1.145554E+002,  0.000000E+000,  5.802068E+001,  9.343632E-001,  2.210404E+000,  3.001530E-001
 -1.579816E+002, -1.145554E+002,  0.000000E+000, -5.802068E+001, -9.343632E-001, -2.210404E+000,  3.001530E-001
  1.488794E+002,  1.067102E+002,  0.000000E+000,  6.629775E+001,  1.437285E+000,  1.628795E+000,  3.001445E-001
 -1.488794E+002, -1.067102E+002,  0.000000E+000, -6.629775E+001, -1.437285E+000, -1.628795E+000,  3.001445E-001
  2.089646E+002,  2.064515E+002,  0.000000E+000, -7.521883E+001, -1.876753E+001,  5.320570E+000,  3.001849E-001
 -2.089646E+002, -2.064515E+002,  0.000000E+000,  7.521883E+001,  1.876753E+001, -5.320570E+000,  3.001849E-001
  2.128962E+002,  2.136213E+002,  0.000000E+000, -7.151243E+001, -1.720583E+001,  7.754895E+000,  3.004445E-001
 -2.128962E+002, -2.136213E+002,  0.000000E+000,  7.151243E+001,  1.720583E+001, -7.754895E+000,  3.004445E-001
  2.165850E+002,  2.188428E+002,  0.000000E+000, -6.792511E+001, -1.564154E+001,  9.966477E+000,  3.002539E-001
 -2.165850E+002, -2.188428E+002,  0.000000E+000,  6.792511E+001,  1.564154E+001, -9.966477E+000,  3.002539E-001
  2.199328E+002,  2.201282E+002,  0.000000E+000, -6.491367E+001, -1.430357E+001,  1.153662E+001,  3.002339E-001
 -2.199328E+002, -2.201282E+002,  0.000000E+000,  6.491367E+001,  1.430357E+001, -1.153662E+001,  3.002339E-001
  2.233640E+002,  2.204692E+002,  0.000000E+000, -6.193354E+001, -1.298805E+001,  1.299481E+001,  3.002001E-001
 -2.233640E+002, -2.204692E+002,  0.000000E+000,  6.193354E+001,  1.298805E+001, -1.299481E+001,  3.002001E-001
  2.269002E+002,  2.204842E+002,  0.000000E+000, -5.877040E+001, -1.165635E+001,  1.450551E+001,  3.003679E-001
 -2.269002E+002, -2.204842E+002,  0.000000E+000,  5.877040E+001,  1.165635E+001, -1.450551E+001,  3.003679E-001
  2.300488E+002,  2.199056E+002,  0.000000E+000, -5.487467E+001, -1.003744E+001,  1.607048E+001,  3.001515E-001
 -2.300488E+002, -2.199056E+002,  0.000000E+000,  5.487467E+001,  1.003744E+001, -1.607048E+001,  3.001515E-001
  2.325637E+002,  2.182991E+002,  0.000000E+000, -5.072647E+001, -7.976901E+000,  1.772881E+001,  3.005089E-001
 -2.325637E+002, -2.182991E+002,  0.000000E+000,  5.072647E+001,  7.976901E+000, -1.772881E+001,  3.005089E-001
  2.340490E+002,  2.153289E+002,  0.000000E+000, -4.589592E+001, -5.791212E+000,  1.918606E+001,  3.002277E-001
 -2.340490E+002, -2.153289E+002,  0.000000E+000,  4.589592E+001,  5.791212E+000, -1.918606E+001,  3.002277E-001
  2.322297E+002,  2.091693E+002,  0.000000E+000, -3.793538E+001, -4.466020E+000,  1.942198E+001,  3.003149E-001
 -2.322297E+002, -2.091693E+002,  0.000000E+000,  3.793538E+001,  4.466020E+000, -1.942198E+001,  3.003149E-001
  2.256209E+002,  1.984696E+002,  0.000000E+000, -2.585501E+001, -4.294095E+000,  1.784796E+001,  3.001210E-001
 -2.256209E+002, -1.984696E+002,  0.000000E+000,  2.585501E+001,  4.294095E+000, -1.784796E+001,  3.001210E-001
  2.182981E+002,  1.876583E+002,  0.000000E+000, -1.416484E+001, -4.002239E+000,  1.607899E+001,  3.000840E-001
 -2.182981E+002, -1.876583E+002,  0.000000E+000,  1.416484E+001,  4.002239E+000, -1.607899E+001,  3.000840E-001
  2.102935E+002,  1.770457E+002,  0.000000E+000, -3.231332E+000, -3.684721E+000,  1.401232E+001,  3.003481E-001
 -2.102935E+002, -1.770457E+002,  0.000000E+000,  3.231332E+000,  3.684721E+000, -1.401232E+001,  3.003481E-001
  2.017657E+002,  1.664571E+002,  0.000000E+000,  7.513715E+000, -3.379480E+000,  1.172188E+001,  3.003030E-001
 -2.017657E+002, -1.664571E+002,  0.000000E+000, -7.513715E+000,  3.379480E+000, -1.172188E+001,  3.003030E-001
  1.932263E+002,  1.564186E+002,  0.000000E+000,  1.768806E+001, -3.004767E+000,  9.297233E+000,  3.000461E-001
 -1.932263E+002, -1.564186E+002,  0.000000E+000, -1.768806E+001,  3.004767E+000, -9.297233E+000,  3.000461E-001
  1.844550E+002,  1.470489E+002,  0.000000E+000,  2.743010E+001, -2.542703E+000,  7.258474E+000,  3.000953E-001
 -1.844550E+002, -1.470489E+002,  0.000000E+000, -2.743010E+001,  2.542703E+000, -7.258474E+000,  3.000953E-001
  1.755026E+002,  1.383560E+002,  0.000000E+000,  3.674882E+001, -2.013338E+000,  5.697644E+000,  3.002400E-001
 -1.755026E+002, -1.383560E+002,  0.000000E+000, -3.674882E+001,  2.013338E+000, -5.697644E+000,  3.002400E-001
  1.662084E+002,  1.302884E+002,  0.000000E+000,  4.569414E+001, -1.420252E+000,  4.687224E+000,  3.001372E-001
 -1.662084E+002, -1.302884E+002,  0.000000E+000, -4.569414E+001,  1.420252E+000, -4.687224E+000,  3.001372E-001
  1.569556E+002,  1.224374E+002,  0.000000E+000,  5.424165E+001, -8.442923E-001,  4.008234E+000,  3.001476E-001
 -1.569556E+002, -1.224374E+002,  0.000000E+000, -5.424165E+001,  8.442923E-001, -4.008234E+000,  3.001476E-001
  1.480268E+002,  1.148604E+002,  0.000000E+000,  6.233178E+001, -2.940990E-001,  3.454254E+000,  3.002734E-001
 -1.480268E+002, -1.148604E+002,  0.000000E+000, -6.233178E+001,  2.940990E-001, -3.454254E+000,  3.002734E-001
  2.078586E+002,  2.220825E+002,  0.000000E+000, -7.337255E+001, -1.886505E+001,  5.671260E+000,  3.001914E-001
 -2.078586E+002, -2.220825E+002,  0.000000E+000,  7.337255E+001,  1.886505E+001, -5.671260E+000,  3.001914E-001
  2.108352E+002,  2.245469E+002,  0.000000E+000, -7.062654E+001, -1.756194E+001,  7.202531E+000,  3.000135E-001
 -2.108352E+002, -2.245469E+002,  0.000000E+000,  7.062654E+001,  1.756194E+001, -7.202531E+000,  3.000135E-001
  2.138478E+002,  2.252649E+002,  0.000000E+000, -6.804285E+001, -1.643636E+001,  8.424346E+000,  3.001297E-001
 -2.138478E+002, -2.252649E+002,  0.000000E+000,  6.804285E+001,  1.643636E+001, -8.424346E+000,  3.001297E-001
  2.170134E+002,  2.256157E+002,  0.000000E+000, -6.538735E+001, -1.524845E+001,  9.656013E+000,  3.002989E-001
 -2.170134E+002, -2.256157E+002,  0.000000E+000,  6.538735E+001,  1.524845E+001, -9.656013E+000,  3.002989E-001
  2.203425E+002,  2.256777E+002,  0.000000E+000, -6.263498E+001, -1.394338E+001,  1.094986E+001,  3.005170E-001
 -2.203425E+002, -2.256777E+002,  0.000000E+000,  6.263498E+001,  1.394338E+001, -1.094986E+001,  3.005170E-001
  2.236053E+002,  2.253840E+002,  0.000000E+000, -5.952015E+001, -1.256739E+001,  1.226602E+001,  3.000651E-001
 -2.236053E+002, -2.253840E+002,  0.000000E+000,  5.952015E+001,  1.256739E+001, -1.226602E+001,  3.000651E-001
  2.265514E+002,  2.243289E+002,  0.000000E+000, -5.583374E+001, -1.081611E+001,  1.369329E+001,  3.001779E-001
 -2.265514E+002, -2.243289E+002,  0.000000E+000,  5.583374E+001,  1.081611E+001, -1.369329E+001,  3.001779E-001
  2.288816E+002,  2.222789E+002,  0.000000E+000, -5.193418E+001, -8.855983E+000,  1.518148E+001,  3.004688E-001
 -2.288816E+002, -2.222789E+002,  0.000000E+000,  5.193418E+001,  8.855983E+000, -1.518148E+001,  3.004688E-001
  2.303208E+002,  2.192861E+002,  0.000000E+000, -4.719041E+001, -6.960046E+000,  1.648289E+001,  3.004161E-001
 -2.303208E+002, -2.192861E+002,  0.000000E+000,  4.719041E+001,  6.960046E+000, -1.648289E+001,  3.004161E-001
  2.287051E+002,  2.133591E+002,  0.000000E+000, -3.951400E+001, -5.779576E+000,  1.678679E+001,  3.000523E-001
 -2.287051E+002, -2.133591E+002,  0.000000E+000,  3.951400E+001,  5.779576E+000, -1.678679E+001,  3.000523E-001
  2.225113E+002,  2.030941E+002,  0.000000E+000, -2.790718E+001, -5.646942E+000,  1.538264E+001,  3.002237E-001
 -2.225113E+002, -2.030941E+002,  0.000000E+000,  2.790718E+001,  5.646942E+000, -1.538264E+001,  3.002237E-001
  2.157560E+002,  1.926716E+002,  0.000000E+000, -1.659266E+001, -5.446054E+000,  1.383361E+001,  3.000836E-001
 -2.157560E+002, -1.926716E+002,  0.000000E+000,  1.659266E+001,  5.446054E+000, -1.383361E+001,  3.000836E-001
  2.087692E+002,  1.823151E+002,  0.000000E+000, -5.952517E+000, -5.382110E+000,  1.225534E+001,  3.003064E-001
 -2.087692E+002, -1.823151E+002,  0.000000E+000,  5.952517E+000,  5.382110E+000, -1.225534E+001,  3.003064E-001
  2.010236E+002,  1.719822E+002,  0.000000E+000,  4.558470E+000, -5.270556E+000,  1.063694E+001,  3.003063E-001
 -2.010236E+002, -1.719822E+002,  0.000000E+000, -4.558470E+000,  5.270556E+000, -1.063694E+001,  3.003063E-001
  1.925272E+002,  1.622264E+002,  0.000000E+000,  1.472309E+001, -4.944954E+000,  9.209393E+000,  3.002203E-001
 -1.925272E+002, -1.622264E+002,  0.000000E+000, -1.472309E+001,  4.944954E+000, -9.209393E+000,  3.002203E-001
  1.834517E+002,  1.531192E+002,  0.000000E+000,  2.448831E+001, -4.445168E+000,  8.012940E+000,  3.000832E-001
 -1.834517E+002, -1.531192E+002,  0.000000E+000, -2.448831E+001,  4.445168E+000, -8.012940E+000,  3.000832E-001
  1.739275E+002,  1.446727E+002,  0.000000E+000,  3.378306E+001, -3.818323E+000,  7.109347E+000,  3.001632E-001
 -1.739275E+002, -1.446727E+002,  0.000000E+000, -3.378306E+001,  3.818323E+000, -7.109347E+000,  3.001632E-001
  1.645346E+002,  1.367664E+002,  0.000000E+000,  4.256442E+001, -3.153687E+000,  6.374096E+000,  3.001626E-001
 -1.645346E+002, -1.367664E+002,  0.000000E+000, -4.256442E+001,  3.153687E+000, -6.374096E+000,  3.001626E-001
  1.555653E+002,  1.293170E+002,  0.000000E+000,  5.083446E+001, -2.499858E+000,  5.687030E+000,  3.001223E-001
 -1.555653E+002, -1.293170E+002,  0.000000E+000, -5.083446E+001,  2.499858E+000, -5.687030E+000,  3.001223E-001
  1.470588E+002,  1.221551E+002,  0.000000E+000,  5.867045E+001, -1.892670E+000,  5.062698E+000,  3.003713E-001
 -1.470588E+002, -1.221551E+002,  0.000000E+000, -5.867045E+001,  1.892670E+000, -5.062698E+000,  3.003713E-001
